 # Version information for this restart file 
 # current date 2020-01-19 14:05:25.923
 # current working dir /scratch/snx3000/gtocci/gtocci/MEMBRANES/AIMD_US_IONS_BN/aimd_us_iodide/us_7
 # Program compiled at                              Fri Nov 22 15:19:42 CET 2019
 # Program compiled on                                                  daint102
 # Program compiled for                                   CRAY_XC50-gfortran_gpu
 # Source code revision number                                       git:a698b45
 &GLOBAL
   PRINT_LEVEL  LOW
   PROJECT_NAME BNS
   RUN_TYPE  MD
   WALLTIME 86400
 &END GLOBAL
 &MOTION
   &MD
     ENSEMBLE  NVT
     STEPS  2000
     TIMESTEP     9.9999999999999989E-01
     STEP_START_VAL  44888
     TIME_START_VAL     4.4887999999984691E+04
     ECONS_START_VAL    -8.4829895884465550E+03
     TEMPERATURE     3.0000000000000000E+02
     TEMP_KIND  T
     &BAROSTAT
       PRESSURE     1.0000000000000000E+00
       TIMECON     9.9999999999999986E+01
       VIRIAL  Z
     &END BAROSTAT
     &THERMOSTAT
       TYPE  NOSE
       REGION  GLOBAL
       &NOSE
         LENGTH  4
         TIMECON     9.9999999999999986E+01
         MTS  2
         &COORD
               3.1756580086929243E-01   -1.1359333401012664E+01    5.4558631305266367E+01   -3.3460945327073759E+01
         &END COORD
         &VELOCITY
               4.2581406063604211E-06   -4.8061823646778430E-04    2.7823055283460543E-04    1.6089076591853507E-04
         &END VELOCITY
         &MASS
               7.0145132684705392E+07    1.6237299232570693E+04    1.6237299232570693E+04    1.6237299232570693E+04
         &END MASS
         &FORCE
               1.2563839294871214E-09    1.9819195499568259E-08    1.7248387537529798E-07    1.8902226680545093E-08
         &END FORCE
       &END NOSE
     &END THERMOSTAT
     &AVERAGES  T
       &RESTART_AVERAGES
         ITIMES_START  1
         AVECPU     2.3878119579973994E+01
         AVEHUGONIOT     0.0000000000000000E+00
         AVETEMP_BARO     0.0000000000000000E+00
         AVEPOT    -8.4858140265174661E+03
         AVEKIN     2.0532814695382293E+00
         AVETEMP     3.0017325605975083E+02
         AVEKIN_QM     0.0000000000000000E+00
         AVETEMP_QM     0.0000000000000000E+00
         AVEVOL     2.2086622704881488E+05
         AVECELL_A     4.9287836997924948E+01
         AVECELL_B     4.7426456757033833E+01
         AVECELL_C     9.4486306644279935E+01
         AVEALPHA     9.0000000000000000E+01
         AVEBETA     9.0000000000000000E+01
         AVEGAMMA     9.0000000000000000E+01
         AVE_ECONS     5.8929006591127262E+01
         AVE_PRESS     0.0000000000000000E+00
         AVE_PXX     0.0000000000000000E+00
       &END RESTART_AVERAGES
     &END AVERAGES
     &PRINT
       &TEMP_KIND  SILENT
       &END TEMP_KIND
     &END PRINT
   &END MD
   &FREE_ENERGY
     &METADYN
       MIN_DISP    -1.0000000000000000E+00
       OLD_HILL_NUMBER  0
       OLD_HILL_STEP  0
       DO_HILLS  F
       STEP_START_VAL  44888
       NHILLS_START_VAL  0
       &METAVAR
         SCALE     1.0000000000000000E+00
         COLVAR  1
       &END METAVAR
       &PRINT
         &COLVAR  SILENT
           COMMON_ITERATION_LEVELS  3
           &EACH
             MD  1
           &END EACH
         &END COLVAR
       &END PRINT
     &END METADYN
   &END FREE_ENERGY
   &CONSTRAINT
     &COLLECTIVE
       COLVAR  1
       INTERMOLECULAR  T
       &RESTRAINT
         K     4.4625385281452931E-04
       &END RESTRAINT
     &END COLLECTIVE
     &COLVAR_RESTART
           6.8363752090519716E+00
     &END COLVAR_RESTART
   &END CONSTRAINT
   &PRINT
     &TRAJECTORY  SILENT
       &EACH
         MD  1
       &END EACH
     &END TRAJECTORY
     &VELOCITIES  SILENT
       &EACH
         MD  1
       &END EACH
     &END VELOCITIES
     &FORCES  SILENT
       UNIT eV*angstrom^-1
       &EACH
         MD  1
       &END EACH
     &END FORCES
     &RESTART  SILENT
       &EACH
         MD  1
       &END EACH
     &END RESTART
     &RESTART_HISTORY  SILENT
       &EACH
         MD  100
       &END EACH
     &END RESTART_HISTORY
   &END PRINT
 &END MOTION
 &FORCE_EVAL
   METHOD  QS
   &DFT
     BASIS_SET_FILE_NAME /users/gtocci/scratch_daint_3000/data_cp2k//BASIS_MOLOPT
     POTENTIAL_FILE_NAME /users/gtocci/scratch_daint_3000/data_cp2k//GTH_POTENTIALS
     WFN_RESTART_FILE_NAME ./BNS-RESTART.wfn
     CHARGE  -1
     &SCF
       MAX_SCF  10
       EPS_SCF     9.9999999999999995E-07
       SCF_GUESS  RESTART
       &OT  T
         MINIMIZER  DIIS
         PRECONDITIONER  FULL_KINETIC
       &END OT
       &OUTER_SCF  T
         EPS_SCF     9.9999999999999995E-07
         MAX_SCF  30
       &END OUTER_SCF
       &PRINT
         &RESTART  SILENT
           ADD_LAST  NUMERIC
           &EACH
             QS_SCF  50
           &END EACH
         &END RESTART
       &END PRINT
     &END SCF
     &QS
       MAP_CONSISTENT  T
       EXTRAPOLATION  ASPC
       EXTRAPOLATION_ORDER  4
     &END QS
     &MGRID
       NGRIDS  5
       CUTOFF     4.6000000000000000E+02
     &END MGRID
     &XC
       DENSITY_CUTOFF     1.0000000000000000E-10
       GRADIENT_CUTOFF     1.0000000000000000E-10
       TAU_CUTOFF     1.0000000000000000E-10
       &XC_GRID
         XC_DERIV  SPLINE2_SMOOTH
       &END XC_GRID
       &XC_FUNCTIONAL  NO_SHORTCUT
         &LIBXC  T
           FUNCTIONAL XC_GGA_X_OPTB88_VDW
         &END LIBXC
         &VWN  T
         &END VWN
       &END XC_FUNCTIONAL
       &VDW_POTENTIAL
         POTENTIAL_TYPE  NON_LOCAL
         &NON_LOCAL
           TYPE  DRSLL
           VERBOSE_OUTPUT  T
           KERNEL_FILE_NAME /users/gtocci/scratch_daint_3000/data_cp2k//vdW_kernel_table.dat
           CUTOFF     3.6000000000000000E+02
         &END NON_LOCAL
       &END VDW_POTENTIAL
     &END XC
     &REAL_TIME_PROPAGATION
       INITIAL_WFN  SCF_WFN
     &END REAL_TIME_PROPAGATION
     &PRINT
       &MULLIKEN  SILENT
         FILENAME =BNS.mulliken
       &END MULLIKEN
     &END PRINT
   &END DFT
   &SUBSYS
     &CELL
       A     2.6082000000000019E+01    0.0000000000000000E+00    0.0000000000000000E+00
       B     0.0000000000000000E+00    2.5097000000000001E+01    0.0000000000000000E+00
       C     0.0000000000000000E+00    0.0000000000000000E+00    5.0000000000000028E+01
       MULTIPLE_UNIT_CELL  1 1 1
     &END CELL
     &COORD
B   -8.0195650571033337E+00    8.0122959460827854E+00   -3.3324421832750659E+01
B   -5.8377903820728951E+00    9.2848388525548788E+00   -3.3512005023627381E+01
B   -8.0464470818165559E+00    1.0539744437705636E+01   -3.3498509184810395E+01
B   -5.7724223998888657E+00    1.1751403956186545E+01   -3.3408958014989118E+01
B   -7.9802842442165005E+00    1.3040143049384637E+01   -3.3385410775471406E+01
B   -5.8331572744868616E+00    1.4295141865342099E+01   -3.3216735450548043E+01
B   -8.0028863308814557E+00    1.5555637306899230E+01   -3.3280600483958857E+01
B   -5.7890901180189029E+00    1.6808540460954301E+01   -3.3229045037098693E+01
B   -8.0061897828965698E+00    1.8060431975667122E+01   -3.3287599115783337E+01
B   -5.8173107430194406E+00    1.9265437902244773E+01   -3.3103257947538175E+01
B   -3.6653421939387778E+00    8.0425313222213273E+00   -3.3670138098714276E+01
B   -1.4895036231219791E+00    9.2616909028056487E+00   -3.3568383297164146E+01
B   -3.6750734239597787E+00    1.0572635358541183E+01   -3.3535516631005486E+01
B   -1.5237889778094404E+00    1.1799295951174106E+01   -3.3457896246218844E+01
B   -3.6664291457811085E+00    1.3074353573450955E+01   -3.3337645264538132E+01
B   -1.5254637892602145E+00    1.4304667757263250E+01   -3.3161370219306320E+01
B   -3.6245792256946721E+00    1.5550995682578359E+01   -3.3047952745066560E+01
B   -1.4986068457107162E+00    1.6790372085837877E+01   -3.3054351813653803E+01
B   -3.6074187549059569E+00    1.8034623948534520E+01   -3.3047635799954016E+01
B   -1.4400868571469900E+00    1.9303419048256409E+01   -3.3080042033595504E+01
B    6.7284158339657263E-01    8.0246512695148908E+00   -3.3528763469354132E+01
B    2.7996157286917325E+00    9.2379020888410306E+00   -3.3454794717832321E+01
B    6.9138976428614762E-01    1.0564603652500349E+01   -3.3411510421069543E+01
B    2.8291023316469137E+00    1.1762399376698443E+01   -3.3344593710752569E+01
B    6.9546827126059330E-01    1.3113577856771926E+01   -3.3218896589849940E+01
B    2.8335587894371450E+00    1.4273057818335067E+01   -3.3170300130318431E+01
B    6.7431636300002540E-01    1.5593125755112739E+01   -3.3081409554873012E+01
B    2.8775353392901621E+00    1.6758035058340816E+01   -3.3240117075388994E+01
B    7.5447888997860801E-01    1.8085387276828246E+01   -3.3109099250204402E+01
B    2.9205681271721242E+00    1.9380923969724599E+01   -3.3110643739760960E+01
N   -6.5606741185378192E+00    8.0150160946149498E+00   -3.3454688643689870E+01
N   -4.4010114020779660E+00    9.2854655016228271E+00   -3.3494543319360204E+01
N   -6.5741281218852832E+00    1.0485867789153090E+01   -3.3499883487818295E+01
N   -4.4060015705477351E+00    1.1814539093966530E+01   -3.3395401631934106E+01
N   -6.5077719646062535E+00    1.2996904285375336E+01   -3.3279576014768487E+01
N   -4.3141802540600205E+00    1.4303130994097472E+01   -3.3204100913657847E+01
N   -6.5093454580716337E+00    1.5592585893328000E+01   -3.3256198249531131E+01
N   -4.3506003947004244E+00    1.6847778867803356E+01   -3.3054918815631787E+01
N   -6.5650666795822206E+00    1.8032070021072464E+01   -3.3128119615805964E+01
N   -4.3492132344284204E+00    1.9291911799299974E+01   -3.3044684683099916E+01
N   -2.2194240562191512E+00    7.9696624167646730E+00   -3.3823249349165998E+01
N   -4.0581920340252792E-02    9.3162174340377710E+00   -3.3581063864985062E+01
N   -2.2458268349150652E+00    1.0552102045693479E+01   -3.3459158574304823E+01
N   -7.3245559878794150E-02    1.1807656984132729E+01   -3.3337826940724668E+01
N   -2.1987815879830124E+00    1.3080971657199600E+01   -3.3493185082736140E+01
N   -7.4150181026356413E-02    1.4345127291685920E+01   -3.3151353223504380E+01
N   -2.2051668007158329E+00    1.5541794241774188E+01   -3.2943825730563240E+01
N   -3.5182157227361580E-02    1.6807214669919215E+01   -3.3035912600819685E+01
N   -2.1641345529835636E+00    1.8035764524943410E+01   -3.3192136295284413E+01
N    1.9649890092513961E-02    1.9356228723446645E+01   -3.3019089681255792E+01
N    2.1148213522527737E+00    7.9642202161372762E+00   -3.3514061209720197E+01
N    4.2597637376455415E+00    9.3366061187733305E+00   -3.3197393225896576E+01
N    2.1251486325311126E+00    1.0529888258242124E+01   -3.3456787387141645E+01
N    4.3187957538821156E+00    1.1813844745771402E+01   -3.3373110340136208E+01
N    2.1241170160430407E+00    1.2997619032748695E+01   -3.3170377140563183E+01
N    4.2826355881592724E+00    1.4287021940042102E+01   -3.3286074949438763E+01
N    2.1026142691187681E+00    1.5573191475124363E+01   -3.3125920400940117E+01
N    4.3174285726911092E+00    1.6767420967043297E+01   -3.3253984656717364E+01
N    2.2210113548489998E+00    1.8109991215888346E+01   -3.3154294565144184E+01
N    4.4152756040952159E+00    1.9306335342897210E+01   -3.3232821661334960E+01
B   -8.0093266040352731E+00    2.0527792693518510E+01   -3.3279978147808450E+01
B   -5.8116751045382768E+00    2.1809646906351581E+01   -3.3177438351952347E+01
B   -7.9678148132105147E+00    2.3007874726668984E+01   -3.3463021999990708E+01
B   -5.8184036394756689E+00    2.4323984451543133E+01   -3.3382719154160142E+01
B   -7.9646326079103629E+00    2.5523920928180512E+01   -3.3426795137028030E+01
B   -5.8612788487151271E+00    2.6831757406098006E+01   -3.3544658308615936E+01
B   -8.0597735556170171E+00    2.8058684093781071E+01   -3.3349754646420152E+01
B   -5.8899206813217404E+00    2.9345364815214065E+01   -3.3584310413147925E+01
B   -7.9682009552044537E+00    3.0580399566448030E+01   -3.3297303065296902E+01
B   -5.8587063944067701E+00    3.1864979244780319E+01   -3.3507586768351388E+01
B   -3.5801547898905528E+00    2.0567176114545660E+01   -3.3104567664163646E+01
B   -1.4695852947515742E+00    2.1836685366820717E+01   -3.3204151000830088E+01
B   -3.6294143927865239E+00    2.3137677064250937E+01   -3.3090482897721976E+01
B   -1.4281359488227054E+00    2.4324429498352224E+01   -3.3298492414565310E+01
B   -3.6727979403303910E+00    2.5551863711135844E+01   -3.3470454813560742E+01
B   -1.4676971522671738E+00    2.6786273253494681E+01   -3.3514417112439709E+01
B   -3.6873061417798052E+00    2.8103642966967293E+01   -3.3636990031295994E+01
B   -1.5106091278162193E+00    2.9291049558831087E+01   -3.3640112907502278E+01
B   -3.6664746206665386E+00    3.0572518476492423E+01   -3.3808615252285243E+01
B   -1.5272788159841344E+00    3.1866675406771609E+01   -3.3747555627533274E+01
B    7.0128488048046300E-01    2.0653921243688632E+01   -3.3110494736965862E+01
B    2.9457882843975791E+00    2.1939516061162944E+01   -3.3125741534370043E+01
B    7.0483400711864086E-01    2.3167096348636456E+01   -3.3179451174001535E+01
B    2.9758628088487118E+00    2.4362390556734795E+01   -3.3487507683932527E+01
B    7.1416481208946625E-01    2.5631415028083349E+01   -3.3529211493666580E+01
B    2.8732698504440428E+00    2.6861163387820113E+01   -3.3704109845499595E+01
B    7.2137095625041825E-01    2.8090869823054128E+01   -3.3447145373429443E+01
B    2.8814428375940850E+00    2.9353413185318125E+01   -3.3468592746156887E+01
B    6.5296985100351257E-01    3.0590959854346480E+01   -3.3598626213734384E+01
B    2.8599925243220596E+00    3.1826835200184735E+01   -3.3529876809549791E+01
N   -6.5255301439094726E+00    2.0570334006896864E+01   -3.3169986575454118E+01
N   -4.3264162932411141E+00    2.1799596037592142E+01   -3.3080203597427584E+01
N   -6.5495656165310763E+00    2.3038340337484239E+01   -3.3322889016650663E+01
N   -4.3872395219025737E+00    2.4331108991363696E+01   -3.3339513588688270E+01
N   -6.5012608767416387E+00    2.5566630558395488E+01   -3.3461544694410158E+01
N   -4.3844168396402212E+00    2.6833560735776985E+01   -3.3518321391114171E+01
N   -6.5998480331108400E+00    2.8087388585455994E+01   -3.3492209802719877E+01
N   -4.4125700228743865E+00    2.9292911649430668E+01   -3.3757040831526105E+01
N   -6.5530875730191784E+00    3.0594847161608513E+01   -3.3351327782206269E+01
N   -4.3941716195955545E+00    3.1838781913730138E+01   -3.3649779056886253E+01
N   -2.1551090986957315E+00    2.0545319277938852E+01   -3.3221927767902343E+01
N    1.0202268839947909E-02    2.1922348551545223E+01   -3.3207797320055796E+01
N   -2.1631232012351522E+00    2.3056128436929161E+01   -3.3216343742205318E+01
N   -8.6872032404979559E-03    2.4387167411129688E+01   -3.3311307315694869E+01
N   -2.1786118986298955E+00    2.5519415830004601E+01   -3.3417048261111340E+01
N    1.6728270234840244E-02    2.6825367388533927E+01   -3.3486721739528107E+01
N   -2.2173784916575956E+00    2.8061786220930227E+01   -3.3645353609833123E+01
N   -5.5020000079868223E-02    2.9330114888533974E+01   -3.3478527353549715E+01
N   -2.2339287859730779E+00    3.0569910355605181E+01   -3.3793681644760227E+01
N   -9.0996945978708985E-02    3.1838161611461739E+01   -3.3581900727391144E+01
N    2.2169732883102560E+00    2.0630833291694991E+01   -3.3057024344484766E+01
N    4.3873041235541637E+00    2.1843428192900038E+01   -3.3221172249892625E+01
N    2.2076258876175263E+00    2.3174775020700437E+01   -3.3250055701602548E+01
N    4.3991989297049932E+00    2.4315221332770722E+01   -3.3465910192550147E+01
N    2.1961878158681838E+00    2.5615965622909492E+01   -3.3759463864984717E+01
N    4.2935189105669220E+00    2.6899781038091305E+01   -3.3802516553267623E+01
N    2.1225018007747241E+00    2.8107378750905987E+01   -3.3475664244747470E+01
N    4.3301254026964671E+00    2.9350736993191223E+01   -3.3502384023966684E+01
N    2.1273253843173325E+00    3.0589254365721175E+01   -3.3645423244596607E+01
N    4.3038377611044618E+00    3.1849571766958167E+01   -3.3391123591858744E+01
B    4.9912066976378293E+00    8.0605133053843154E+00   -3.3232246196061752E+01
B    7.1957247076891493E+00    9.2666174884820407E+00   -3.3061407847851797E+01
B    5.0305594506896929E+00    1.0569799048308386E+01   -3.3193677823425212E+01
B    7.2093757434149000E+00    1.1823554285426759E+01   -3.3087667695514810E+01
B    5.0321701253637467E+00    1.3074196038451168E+01   -3.3216440041245292E+01
B    7.2363371068423019E+00    1.4245574833106854E+01   -3.3186442620640996E+01
B    5.0200686482042745E+00    1.5509071315580433E+01   -3.3424304924270025E+01
B    7.2395018471490227E+00    1.6732391990281343E+01   -3.3454849260101703E+01
B    5.0728836618573583E+00    1.8022392702216933E+01   -3.3354928168463410E+01
B    7.2452139799071933E+00    1.9275253483666837E+01   -3.3540428855513710E+01
B    9.3615339371651558E+00    8.0500156746556648E+00   -3.3065458961006954E+01
B    1.1548193709496115E+01    9.2695370769737373E+00   -3.3182386671731507E+01
B    9.4100795471316108E+00    1.0537937448707867E+01   -3.2988586569049879E+01
B    1.1561999605253629E+01    1.1823624152638823E+01   -3.3197763818882102E+01
B    9.4039908517491213E+00    1.3035524970120303E+01   -3.3076267375821722E+01
B    1.1600871060534910E+01    1.4276321580247734E+01   -3.3244827641994249E+01
B    9.3811019411646051E+00    1.5597645474345796E+01   -3.3295950130186419E+01
B    1.1610579270285266E+01    1.6839073953420623E+01   -3.3424748469486993E+01
B    9.4168913240930703E+00    1.8085743094437561E+01   -3.3504325413732630E+01
B    1.1546676952462384E+01    1.9293233397370798E+01   -3.3691087746753276E+01
B    1.3651083300983192E+01    8.0636599102401547E+00   -3.3266949107062977E+01
B    1.5916274476102467E+01    9.2726412914870071E+00   -3.3333705741060996E+01
B    1.3749870683753498E+01    1.0555733248661612E+01   -3.3258424613368184E+01
B    1.5929284324361936E+01    1.1825577940430712E+01   -3.3364820996020889E+01
B    1.3731343546299488E+01    1.3044343036733590E+01   -3.3262978263320825E+01
B    1.5958096476580115E+01    1.4274178628330507E+01   -3.3292177547529420E+01
B    1.3729386118680935E+01    1.5502802547772253E+01   -3.3363829167478904E+01
B    1.5897186580199964E+01    1.6774802137130873E+01   -3.3408574713730374E+01
B    1.3744009379116681E+01    1.8049703389853267E+01   -3.3621966626910904E+01
B    1.5909946310366838E+01    1.9282513860811161E+01   -3.3387323786253795E+01
N    6.4453904977325172E+00    8.0416424412524350E+00   -3.3162947652125382E+01
N    8.6495610808467411E+00    9.2958623946914258E+00   -3.2918443794786420E+01
N    6.4413758624599966E+00    1.0530292416522064E+01   -3.3109994581479093E+01
N    8.7000980852129111E+00    1.1748138858867200E+01   -3.3109768079209765E+01
N    6.4716474924310150E+00    1.3022014663003377E+01   -3.3036916452522441E+01
N    8.6805818267745405E+00    1.4267045560295440E+01   -3.3119971126988276E+01
N    6.4722565897386550E+00    1.5496946444363862E+01   -3.3383488961093555E+01
N    8.6675482689633370E+00    1.6803295504339832E+01   -3.3395081330661988E+01
N    6.5024606848367368E+00    1.8024886598222814E+01   -3.3382849061327263E+01
N    8.6641078185146458E+00    1.9292830009541490E+01   -3.3739612322992123E+01
N    1.0840102539810173E+01    8.0275855099407796E+00   -3.3096837285520571E+01
N    1.2960494285892153E+01    9.3139388277114978E+00   -3.3293204693935806E+01
N    1.0862786064442631E+01    1.0541308257593734E+01   -3.3099235722233509E+01
N    1.3009266072352540E+01    1.1807358945791172E+01   -3.3274816452070134E+01
N    1.0860966773945803E+01    1.2999127972895550E+01   -3.3167549175603256E+01
N    1.3011692766111189E+01    1.4298512040724816E+01   -3.3279128730036270E+01
N    1.0845449209389267E+01    1.5538604700720510E+01   -3.3349985387926985E+01
N    1.3038735770689577E+01    1.6774943410071764E+01   -3.3458729217244908E+01
N    1.0836859683219165E+01    1.8068095032197462E+01   -3.3388959996047674E+01
N    1.2997985719743031E+01    1.9282411756131221E+01   -3.3724488556565660E+01
N    1.5122933701684296E+01    8.0500787454957425E+00   -3.3260024488048103E+01
N    1.7332203015140820E+01    9.2597524577871688E+00   -3.3329968419248637E+01
N    1.5207580215808088E+01    1.0582904389407355E+01   -3.3281811876036876E+01
N    1.7347224269846993E+01    1.1826649656693791E+01   -3.3667274591728976E+01
N    1.5207674771459171E+01    1.3030529050461306E+01   -3.3220709469041289E+01
N    1.7405640856421911E+01    1.4301630975868958E+01   -3.3190313436535725E+01
N    1.5236910374566135E+01    1.5505258800312086E+01   -3.3428953484128648E+01
N    1.7346518485282623E+01    1.6777018576644021E+01   -3.3413293798613694E+01
N    1.5149282221168191E+01    1.8052738927863846E+01   -3.3398319498625703E+01
N    1.7316930056325873E+01    1.9281665920546367E+01   -3.3275178506928533E+01
B    5.1345292575106889E+00    2.0552142978290831E+01   -3.3365659772783395E+01
B    7.2997833016392146E+00    2.1781840648201943E+01   -3.3589443663461488E+01
B    5.1377218897655350E+00    2.3106754584865946E+01   -3.3305913915910295E+01
B    7.2327790511055268E+00    2.4284079809117042E+01   -3.3750767198240105E+01
B    5.0516052402307849E+00    2.5610922857083185E+01   -3.3760563297160921E+01
B    7.1871766214589616E+00    2.6723805953651119E+01   -3.3725146548426125E+01
B    5.0659082078607396E+00    2.8123631836992182E+01   -3.3714297907971506E+01
B    7.1360393083367555E+00    2.9327189522913681E+01   -3.3428743976008633E+01
B    5.0024678420350224E+00    3.0631950096425243E+01   -3.3360548558158044E+01
B    7.1696106116210583E+00    3.1838951169858916E+01   -3.3210799925140151E+01
B    9.4585535263526808E+00    2.0485567454128123E+01   -3.3839787470107510E+01
B    1.1539865600960505E+01    2.1798377677603444E+01   -3.3672448421182182E+01
B    9.3875362914671161E+00    2.3031210415455753E+01   -3.3771502051596563E+01
B    1.1586097826716808E+01    2.4277437895159125E+01   -3.3657895224047202E+01
B    9.4140013356923440E+00    2.5544592366736598E+01   -3.3757813647571815E+01
B    1.1542629488644360E+01    2.6825092788710926E+01   -3.3516321927735127E+01
B    9.3060825664456761E+00    2.8042030462839172E+01   -3.3469930889707747E+01
B    1.1509216720901108E+01    2.9326604550769645E+01   -3.3295019450045828E+01
B    9.3045776981012427E+00    3.0615539194794724E+01   -3.3263097542955890E+01
B    1.1472679462737956E+01    3.1820335028093194E+01   -3.3097172603538056E+01
B    1.3730588802459989E+01    2.0491512609591616E+01   -3.3536207143950435E+01
B    1.5929933948940906E+01    2.1795651649912568E+01   -3.3421475066771649E+01
B    1.3755306528892854E+01    2.3038189497475081E+01   -3.3500033270256132E+01
B    1.5924747069603827E+01    2.4317872579953324E+01   -3.3452399298128874E+01
B    1.3706281534041882E+01    2.5566989982735606E+01   -3.3337889792413122E+01
B    1.5869238115114559E+01    2.6820800913658161E+01   -3.3241242542622913E+01
B    1.3652417710607180E+01    2.8129458376010724E+01   -3.3293525684548726E+01
B    1.5854799698430554E+01    2.9306555298512354E+01   -3.3251536952821425E+01
B    1.3719086633554365E+01    3.0565525998193948E+01   -3.3111370706074247E+01
B    1.5934238733289567E+01    3.1888221134947287E+01   -3.3293108254397502E+01
N    6.5648121536258053E+00    2.0564949909644536E+01   -3.3568666767676980E+01
N    8.7116657531157138E+00    2.1771635694397013E+01   -3.3760055589701466E+01
N    6.5808782038026887E+00    2.3064387010572283E+01   -3.3494422447674744E+01
N    8.6712436972447993E+00    2.4317238969874666E+01   -3.3775125000425142E+01
N    6.4685698599862800E+00    2.5519971225362731E+01   -3.3921987667644139E+01
N    8.6971943215842007E+00    2.6784136242279082E+01   -3.3733672698546819E+01
N    6.5111447584075899E+00    2.8034666134659460E+01   -3.3716993400724995E+01
N    8.5907213248272782E+00    2.9292729302102970E+01   -3.3382621714978221E+01
N    6.4778494903979285E+00    3.0580278367005675E+01   -3.3280664884055362E+01
N    8.6296254488226651E+00    3.1866873630121347E+01   -3.3144114105641037E+01
N    1.0861107013184125E+01    2.0521058561432437E+01   -3.3841830627816904E+01
N    1.3012492814906951E+01    2.1768608620409680E+01   -3.3563368357968955E+01
N    1.0841333765866519E+01    2.3041683006394784E+01   -3.3830907140167298E+01
N    1.3023079272178434E+01    2.4281269414603504E+01   -3.3335933026438639E+01
N    1.0854098585585414E+01    2.5570295020023643E+01   -3.3592518551648865E+01
N    1.2953823298733687E+01    2.6831046333620787E+01   -3.3309371709156125E+01
N    1.0825191659941519E+01    2.8098915653325925E+01   -3.3494003343179948E+01
N    1.2943606823123451E+01    2.9358241608467555E+01   -3.3156778606510727E+01
N    1.0710107015302187E+01    3.0607126331226294E+01   -3.3198535792765583E+01
N    1.2959327616053409E+01    3.1823088427782189E+01   -3.3146074263769343E+01
N    1.5150782009924146E+01    2.0524919995092883E+01   -3.3380591773192542E+01
N    1.7399386234171516E+01    2.1812341931431462E+01   -3.3348707744901262E+01
N    1.5215754470880583E+01    2.3027097515336440E+01   -3.3443031377391172E+01
N    1.7389676547783374E+01    2.4280320174850782E+01   -3.3574511291906227E+01
N    1.5145687058721807E+01    2.5510302667670601E+01   -3.3398497671353184E+01
N    1.7345332385776558E+01    2.6805781371927885E+01   -3.3347144737732705E+01
N    1.5115981522055836E+01    2.8061008565341275E+01   -3.3285917752442103E+01
N    1.7311776802070039E+01    2.9295806825439044E+01   -3.3253309987868370E+01
N    1.5198069413134558E+01    3.0610339170124483E+01   -3.3161316758268889E+01
N    1.7355799515405042E+01    3.1838157121088180E+01   -3.3238895851336785E+01
O   -1.9949242140923019E+01   -4.3413304548277956E+01   -1.6915324659280824E+01
H   -1.9727324284609722E+01   -4.2465251469571683E+01   -1.6975864523626306E+01
H   -2.0045321471700014E+01   -4.3842368587888323E+01   -1.7759912447886606E+01
O    3.5033437497471603E+01   -8.6793218629752459E+01   -1.8674145756608333E+01
H    3.5317415945861164E+01   -8.7563733961777913E+01   -1.9203853114720591E+01
H    3.4807185286936544E+01   -8.7257242971555186E+01   -1.7817961235430193E+01
O   -5.4481628883352702E+00   -1.9256410332209740E+01   -2.9991553258953413E+01
H   -5.9273071718758725E+00   -2.0084713172510277E+01   -3.0267536996182084E+01
H   -5.3123369229934827E+00   -1.9367842763465827E+01   -2.9020477407586959E+01
O   -3.5238024815897042E+01   -1.4649064928113757E+00   -2.5694739616254996E+01
H   -3.4563728690627549E+01   -1.6831717891042060E+00   -2.6411465895445563E+01
H   -3.4745944834595647E+01   -1.6003621787116198E+00   -2.4873970077863859E+01
O   -2.9201119376763600E+01   -1.0542817692594427E+02   -2.7741120212677721E+01
H   -2.9571590367635224E+01   -1.0629459503686221E+02   -2.7408423474199939E+01
H   -2.8987675228913641E+01   -1.0546980458979036E+02   -2.8722026036490735E+01
O    5.4503159061405952E+01   -7.4260360482667778E+01   -2.1459845182031813E+01
H    5.4410322452462033E+01   -7.5065914965050212E+01   -2.0810612704281645E+01
H    5.4728371010291063E+01   -7.4665691595095083E+01   -2.2334096888821378E+01
O   -6.0077299296750928E+00   -6.0976997396062409E+01   -2.9790753384980214E+01
H   -5.4498069930591946E+00   -6.1748685246505410E+01   -3.0168259294126141E+01
H   -6.8906134484212869E+00   -6.1304534867567519E+01   -2.9544903440509145E+01
O   -5.1676760674673126E+01   -3.3669840423402349E+00   -2.9766991895335106E+01
H   -5.1739724639211204E+01   -3.4376475342074246E+00   -2.8737108472103543E+01
H   -5.0711738245026140E+01   -3.2566894623455105E+00   -2.9900863846055412E+01
O   -1.2453075835815424E+01   -6.9588481956881324E+01   -2.9628419740693683E+01
H   -1.3182047281704985E+01   -7.0172511740369885E+01   -3.0073678387088556E+01
H   -1.2831625959197515E+01   -6.9247206988223070E+01   -2.8747073494510683E+01
O   -3.6586506706501233E+01   -1.3014700914041169E+01   -1.8353406470937493E+01
H   -3.5890674130110334E+01   -1.2732730877078225E+01   -1.8979372786262502E+01
H   -3.6584675287777770E+01   -1.4021034275342970E+01   -1.8189712646007457E+01
O   -7.9591158079344495E+01   -1.2192872224080817E+02   -2.6456393273960895E+01
H   -7.9638894045999621E+01   -1.2275226833600352E+02   -2.6950036050129878E+01
H   -8.0535577780170826E+01   -1.2176791430973370E+02   -2.6197651794785937E+01
O   -6.0135828670539347E+01    1.2164524527347883E+01   -2.0275377970486982E+01
H   -6.0074751058084878E+01    1.1284777080401835E+01   -2.0779318706772163E+01
H   -5.9616136347163732E+01    1.1921423732867588E+01   -1.9458322590811765E+01
O   -6.4711444541413865E+00   -4.6761196021502691E+01   -2.0882266156992667E+01
H   -7.0615501691384210E+00   -4.6943403907559144E+01   -2.1628192993640937E+01
H   -6.0599087027984160E+00   -4.5900618812839994E+01   -2.1095489791132895E+01
O   -3.4539767925377824E+01    2.0157714500371352E+01   -2.9699635938424098E+01
H   -3.5037241222272563E+01    2.0974012119470409E+01   -2.9998923065088782E+01
H   -3.5131719110727055E+01    1.9360742548096493E+01   -2.9845035117657172E+01
O   -1.1814711856256677E+01   -8.4647390996257755E+01   -1.6792090454310024E+01
H   -1.1921416922780322E+01   -8.5605349858654378E+01   -1.6923865784328157E+01
H   -1.1148816264576045E+01   -8.4455982133041672E+01   -1.6120201796382979E+01
O    2.3233011393577112E+01   -6.8542560138456480E+01   -2.4488422041725311E+01
H    2.3238617615928138E+01   -6.9426229410104767E+01   -2.4047107896424649E+01
H    2.3328095669016850E+01   -6.7852827405743454E+01   -2.3769903195317266E+01
O   -2.0384484170877315E+01   -2.8810880447053929E+01   -2.0175783471758709E+01
H   -2.0839902632203621E+01   -2.9493212145945542E+01   -2.0689079368485615E+01
H   -2.0999302080995616E+01   -2.8001740923557616E+01   -2.0207632319254717E+01
O    2.3898235045150308E+01    1.4233372650327079E+01   -2.9940054735452239E+01
H    2.3709407948292608E+01    1.4761177643718904E+01   -3.0725500754227767E+01
H    2.3323940354958850E+01    1.3384260164789104E+01   -2.9944698638226427E+01
O   -1.4375726050239061E+01    1.2257624353268950E+01   -2.3304763443914165E+01