 # Version information for this restart file 
 # current date 2020-01-08 16:06:21.246
 # current working dir /scratch/snx3000/gtocci/gtocci/MEMBRANES/AIMD_US_IONS_BN/aimd_us_pot/us_5
 # Program compiled at                              Fri Nov 22 15:19:42 CET 2019
 # Program compiled on                                                  daint102
 # Program compiled for                                   CRAY_XC50-gfortran_gpu
 # Source code revision number                                       git:a698b45
 &GLOBAL
   PRINT_LEVEL  LOW
   PROJECT_NAME BNS
   RUN_TYPE  MD
   WALLTIME 86400
 &END GLOBAL
 &MOTION
   &MD
     ENSEMBLE  NVT
     STEPS  2000
     TIMESTEP     9.9999999999999989E-01
     STEP_START_VAL  34000
     TIME_START_VAL     3.4000000000001455E+04
     ECONS_START_VAL    -8.4995901973804066E+03
     TEMPERATURE     3.0000000000000000E+02
     TEMP_KIND  T
     &BAROSTAT
       PRESSURE     1.0000000000000000E+00
       TIMECON     9.9999999999999986E+01
       VIRIAL  Z
     &END BAROSTAT
     &THERMOSTAT
       TYPE  NOSE
       REGION  GLOBAL
       &NOSE
         LENGTH  4
         TIMECON     9.9999999999999986E+01
         MTS  2
         &COORD
               2.2954779519742879E-01    1.4479725447939703E+01    3.4024748494083319E+01   -2.6356479481007622E+01
         &END COORD
         &VELOCITY
              -2.2104465447486779E-06    1.7197167989641972E-04    3.8031166482993097E-05    2.5666195141097115E-04
         &END VELOCITY
         &MASS
               7.0145132684705392E+07    1.6237299232570693E+04    1.6237299232570693E+04    1.6237299232570693E+04
         &END MASS
         &FORCE
               3.3366421757822863E-10   -3.7402174484638353E-08   -2.8935755163708417E-08   -5.7063644226047927E-08
         &END FORCE
       &END NOSE
     &END THERMOSTAT
     &AVERAGES  T
       &RESTART_AVERAGES
         ITIMES_START  1
         AVECPU     2.4452521283537745E+01
         AVEHUGONIOT     0.0000000000000000E+00
         AVETEMP_BARO     0.0000000000000000E+00
         AVEPOT    -8.5024724392665812E+03
         AVEKIN     2.0509027809621561E+00
         AVETEMP     2.9982551089883168E+02
         AVEKIN_QM     0.0000000000000000E+00
         AVETEMP_QM     0.0000000000000000E+00
         AVEVOL     2.2086622704880577E+05
         AVECELL_A     4.9287836997924984E+01
         AVECELL_B     4.7426456757032106E+01
         AVECELL_C     9.4486306644279694E+01
         AVEALPHA     9.0000000000000000E+01
         AVEBETA     9.0000000000000000E+01
         AVEGAMMA     9.0000000000000000E+01
         AVE_ECONS     9.8167278543588008E+00
         AVE_PRESS     0.0000000000000000E+00
         AVE_PXX     0.0000000000000000E+00
       &END RESTART_AVERAGES
     &END AVERAGES
     &PRINT
       &TEMP_KIND  SILENT
       &END TEMP_KIND
     &END PRINT
   &END MD
   &FREE_ENERGY
     &METADYN
       MIN_DISP    -1.0000000000000000E+00
       OLD_HILL_NUMBER  0
       OLD_HILL_STEP  0
       DO_HILLS  F
       STEP_START_VAL  34000
       NHILLS_START_VAL  0
       &METAVAR
         SCALE     1.0000000000000000E+00
         COLVAR  1
       &END METAVAR
       &PRINT
         &COLVAR  SILENT
           COMMON_ITERATION_LEVELS  3
           &EACH
             MD  1
           &END EACH
         &END COLVAR
       &END PRINT
     &END METADYN
   &END FREE_ENERGY
   &CONSTRAINT
     &COLLECTIVE
       COLVAR  1
       INTERMOLECULAR  T
       &RESTRAINT
         K     4.4625385281452931E-04
       &END RESTRAINT
     &END COLLECTIVE
     &COLVAR_RESTART
           4.9466490761663291E+00
     &END COLVAR_RESTART
   &END CONSTRAINT
   &PRINT
     &TRAJECTORY  SILENT
       &EACH
         MD  1
       &END EACH
     &END TRAJECTORY
     &VELOCITIES  SILENT
       &EACH
         MD  1
       &END EACH
     &END VELOCITIES
     &FORCES  SILENT
       UNIT eV*angstrom^-1
       &EACH
         MD  1
       &END EACH
     &END FORCES
     &RESTART  SILENT
       &EACH
         MD  1
       &END EACH
     &END RESTART
     &RESTART_HISTORY  SILENT
       &EACH
         MD  100
       &END EACH
     &END RESTART_HISTORY
   &END PRINT
 &END MOTION
 &FORCE_EVAL
   METHOD  QS
   &DFT
     BASIS_SET_FILE_NAME /users/gtocci/scratch_daint_3000/data_cp2k//BASIS_MOLOPT
     POTENTIAL_FILE_NAME /users/gtocci/scratch_daint_3000/data_cp2k//GTH_POTENTIALS
     WFN_RESTART_FILE_NAME ./BNS-RESTART.wfn
     CHARGE  1
     &SCF
       MAX_SCF  10
       EPS_SCF     9.9999999999999995E-07
       SCF_GUESS  RESTART
       &OT  T
         MINIMIZER  DIIS
         PRECONDITIONER  FULL_KINETIC
       &END OT
       &OUTER_SCF  T
         EPS_SCF     9.9999999999999995E-07
         MAX_SCF  30
       &END OUTER_SCF
       &PRINT
         &RESTART  SILENT
           ADD_LAST  NUMERIC
           &EACH
             QS_SCF  50
           &END EACH
         &END RESTART
       &END PRINT
     &END SCF
     &QS
       MAP_CONSISTENT  T
       EXTRAPOLATION  ASPC
       EXTRAPOLATION_ORDER  4
     &END QS
     &MGRID
       NGRIDS  5
       CUTOFF     4.6000000000000000E+02
     &END MGRID
     &XC
       DENSITY_CUTOFF     1.0000000000000000E-10
       GRADIENT_CUTOFF     1.0000000000000000E-10
       TAU_CUTOFF     1.0000000000000000E-10
       &XC_GRID
         XC_DERIV  SPLINE2_SMOOTH
       &END XC_GRID
       &XC_FUNCTIONAL  NO_SHORTCUT
         &LIBXC  T
           FUNCTIONAL XC_GGA_X_OPTB88_VDW
         &END LIBXC
         &VWN  T
         &END VWN
       &END XC_FUNCTIONAL
       &VDW_POTENTIAL
         POTENTIAL_TYPE  NON_LOCAL
         &NON_LOCAL
           TYPE  DRSLL
           VERBOSE_OUTPUT  T
           KERNEL_FILE_NAME /users/gtocci/scratch_daint_3000/data_cp2k//vdW_kernel_table.dat
           CUTOFF     3.6000000000000000E+02
         &END NON_LOCAL
       &END VDW_POTENTIAL
     &END XC
     &REAL_TIME_PROPAGATION
       INITIAL_WFN  SCF_WFN
     &END REAL_TIME_PROPAGATION
     &PRINT
       &MULLIKEN  SILENT
         FILENAME =BNS.mulliken
       &END MULLIKEN
     &END PRINT
   &END DFT
   &SUBSYS
     &CELL
       A     2.6082000000000019E+01    0.0000000000000000E+00    0.0000000000000000E+00
       B     0.0000000000000000E+00    2.5097000000000001E+01    0.0000000000000000E+00
       C     0.0000000000000000E+00    0.0000000000000000E+00    5.0000000000000028E+01
       MULTIPLE_UNIT_CELL  1 1 1
     &END CELL
     &COORD
B   -2.5136151595227956E+00    9.7245309480861692E+00   -1.8287203587582219E+01
B   -3.6765266079037789E-01    1.0910958897244813E+01   -1.7951508065736480E+01
B   -2.5121153481148273E+00    1.2235279957770206E+01   -1.8279897675854755E+01
B   -3.4543533886903771E-01    1.3370453738823661E+01   -1.8223294628865496E+01
B   -2.5002568725564340E+00    1.4678938676894711E+01   -1.8447157569469194E+01
B   -3.5391231696657655E-01    1.5867813390449214E+01   -1.8407101441681995E+01
B   -2.4122053461356634E+00    1.7201631707847710E+01   -1.8419468334029073E+01
B   -2.7863556690716107E-01    1.8427026511725309E+01   -1.8350366449569705E+01
B   -2.4602976489929236E+00    1.9721887820098406E+01   -1.8209181135186991E+01
B   -2.7427700621900225E-01    2.0900613350213586E+01   -1.8333536243698038E+01
B    1.8213966948639542E+00    9.6348907400045256E+00   -1.7850191084750758E+01
B    4.0270234171308257E+00    1.0931274124043862E+01   -1.7976654093901566E+01
B    1.8572403570994696E+00    1.2168298822597972E+01   -1.8054041718835851E+01
B    4.0713911926195445E+00    1.3418116099863870E+01   -1.8158874346171356E+01
B    1.8615222093673218E+00    1.4657872136152713E+01   -1.8335981162719428E+01
B    4.0301705518615032E+00    1.5899944720757107E+01   -1.8409430683724697E+01
B    1.8261151642358624E+00    1.7180236425736545E+01   -1.8443142290540223E+01
B    4.0424908664743784E+00    1.8422724830416875E+01   -1.8420105138834238E+01
B    1.8372604988493428E+00    1.9742210053941360E+01   -1.8428704368595710E+01
B    4.0130722950565616E+00    2.0928669770515587E+01   -1.8531822061173209E+01
B    6.1596384260557802E+00    9.6516250760771598E+00   -1.7892004643075627E+01
B    8.3908661950011343E+00    1.0878031748196850E+01   -1.8017671603595499E+01
B    6.1949087244769796E+00    1.2169885520638601E+01   -1.7910264148651795E+01
B    8.4172735036226118E+00    1.3360031893706983E+01   -1.8145527718494975E+01
B    6.1850087222056880E+00    1.4636695362480385E+01   -1.8265665202549112E+01
B    8.4201799244342475E+00    1.5877513653471775E+01   -1.8325226145649005E+01
B    6.2240134831574121E+00    1.7153885278678629E+01   -1.8357712875316004E+01
B    8.4272704687315798E+00    1.8366828691046450E+01   -1.8304944147190774E+01
B    6.1926303539300145E+00    1.9662943058199772E+01   -1.8428288591151915E+01
B    8.4046734767043692E+00    2.0876635545928316E+01   -1.8294777890040272E+01
N   -1.0901442827013865E+00    9.6521807076205786E+00   -1.7997275559869973E+01
N    1.0898123764428722E+00    1.0933114533625718E+01   -1.7918106759736922E+01
N   -1.0943619102294133E+00    1.2170064986133642E+01   -1.8098263606276614E+01
N    1.1568670113199755E+00    1.3386699093619997E+01   -1.8226019181185368E+01
N   -1.0451586540956828E+00    1.4623788791669899E+01   -1.8380491527104557E+01
N    1.1558917955866572E+00    1.5911862548818318E+01   -1.8302909588373801E+01
N   -9.7875243104530829E-01    1.7140717647715199E+01   -1.8350657593982696E+01
N    1.1840429321682655E+00    1.8445163837835576E+01   -1.8465793123201578E+01
N   -1.0106579518170198E+00    1.9681572616550802E+01   -1.8259381818917660E+01
N    1.0963826882470662E+00    2.0928864813267737E+01   -1.8453559512502284E+01
N    3.2585511546564034E+00    9.6606631732212502E+00   -1.7907598758530078E+01
N    5.5194462036643213E+00    1.0891243433435731E+01   -1.7896412641840438E+01
N    3.3128123461228234E+00    1.2153311701868901E+01   -1.8055688052960541E+01
N    5.4745630959903284E+00    1.3393749769766089E+01   -1.8051652294999723E+01
N    3.3672188142290826E+00    1.4688223031784528E+01   -1.8348574938791828E+01
N    5.4713212540308271E+00    1.5914082588678188E+01   -1.8441722367823239E+01
N    3.3130195716757238E+00    1.7175595412508571E+01   -1.8468274373856243E+01
N    5.4737194828361764E+00    1.8383761546078411E+01   -1.8317412701667518E+01
N    3.2765194684427343E+00    1.9709655988490553E+01   -1.8526816503829391E+01
N    5.4774239923614081E+00    2.0933177624648252E+01   -1.8587528773855301E+01
N    7.6458321371648195E+00    9.6300753504485179E+00   -1.7981908359261276E+01
N    9.8620849236806496E+00    1.0878558387290369E+01   -1.8073468776971023E+01
N    7.6771984285297821E+00    1.2147078963652966E+01   -1.8038298049987670E+01
N    9.8616522196688230E+00    1.3373706974482459E+01   -1.8085561643913231E+01
N    7.6461719848060383E+00    1.4639767726847229E+01   -1.8292625660015375E+01
N    9.8640759518112908E+00    1.5932437635154320E+01   -1.8229676401059105E+01
N    7.6890387422090827E+00    1.7136878476073683E+01   -1.8204636710436880E+01
N    9.8680879132616184E+00    1.8428675485022865E+01   -1.8202710672818064E+01
N    7.6857891612722726E+00    1.9631524127320976E+01   -1.8309374007852512E+01
N    9.8577327720747068E+00    2.0910762285730883E+01   -1.8275002178821730E+01
B   -2.4729097714577550E+00    2.2244267758043524E+01   -1.8200829747797304E+01
B   -3.2439788883491161E-01    2.3496818988795535E+01   -1.8475519803336745E+01
B   -2.4113507918022119E+00    2.4760792434258214E+01   -1.8286773622720286E+01
B   -3.0835668015532097E-01    2.5960477663071142E+01   -1.8365572948554028E+01
B   -2.4339881858706209E+00    2.7208844777632848E+01   -1.8248433457877510E+01
B   -3.0138018097771141E-01    2.8576440838054502E+01   -1.8401107355023203E+01
B   -2.4698430736464125E+00    2.9738083330080901E+01   -1.8446029650677236E+01
B   -3.4786655277854112E-01    3.1008945234106374E+01   -1.8253529005097612E+01
B   -2.4812947041585649E+00    3.2284463029146401E+01   -1.8450625346057159E+01
B   -3.4000866956158077E-01    3.3482051836752646E+01   -1.8053577353789443E+01
B    1.8420680442611050E+00    2.2198685706431572E+01   -1.8439852652452959E+01
B    4.0798101855628692E+00    2.3479813317239664E+01   -1.8457903967208306E+01
B    1.8717845269034274E+00    2.4670177712514263E+01   -1.8401582732150526E+01
B    4.0507566348373025E+00    2.6000285151092072E+01   -1.8510776302396049E+01
B    1.8841117644214715E+00    2.7209650790385616E+01   -1.8368174573325781E+01
B    4.0405609994294016E+00    2.8510118016825505E+01   -1.8363441721524914E+01
B    1.8680474651993793E+00    2.9697241107628226E+01   -1.8260555374032215E+01
B    4.0251960151713781E+00    3.0998401807798245E+01   -1.8159439881886755E+01
B    1.8104351592983181E+00    3.2168758151907397E+01   -1.8031196125348636E+01
B    3.9688646150705327E+00    3.3497331463259272E+01   -1.7985898696068659E+01
B    6.2349458940671738E+00    2.2165531867650802E+01   -1.8504862322101403E+01
B    8.4105584825752615E+00    2.3467490556657093E+01   -1.8474705983670376E+01
B    6.2140979995127612E+00    2.4753765403685126E+01   -1.8519015793922947E+01
B    8.3325538549866138E+00    2.5950738454933777E+01   -1.8533271203802006E+01
B    6.1879921819870951E+00    2.7237676901135906E+01   -1.8391298857500921E+01
B    8.3873054067064565E+00    2.8533335297711567E+01   -1.8399527924919859E+01
B    6.2464834248146266E+00    2.9787878027061275E+01   -1.8329906937559453E+01
B    8.4358563946560707E+00    3.0985659954163403E+01   -1.8257308379165679E+01
B    6.1848830361267453E+00    3.2231082801691976E+01   -1.8006404466675132E+01
B    8.3636821801809624E+00    3.3485103901932391E+01   -1.8116670626482666E+01
N   -1.0052431148452778E+00    2.2242953896290924E+01   -1.8265407657109058E+01
N    1.1292092201840453E+00    2.3408030600013195E+01   -1.8420749060450643E+01
N   -1.0205539859864030E+00    2.4708530293728238E+01   -1.8501761465539911E+01
N    1.1785858646362604E+00    2.5941130933311836E+01   -1.8417682966014659E+01
N   -9.9693887728233654E-01    2.7237268454819503E+01   -1.8430547371415823E+01
N    1.1268920842454206E+00    2.8466711907154924E+01   -1.8330086078057278E+01
N   -9.8712044184607062E-01    2.9759873208478343E+01   -1.8466299257848522E+01
N    1.0779145988270102E+00    3.0979491306704528E+01   -1.8077831554507291E+01
N   -1.0755236617481971E+00    3.2245537186064730E+01   -1.8209769243094797E+01
N    1.1022203033947382E+00    3.3470757050850374E+01   -1.7931298816129463E+01
N    3.3328161781594297E+00    2.2237404620316642E+01   -1.8402814737869448E+01
N    5.5190243558495213E+00    2.3440176173892560E+01   -1.8590851501810238E+01
N    3.3510338292586010E+00    2.4736963233315610E+01   -1.8448109129718574E+01
N    5.4622151606121196E+00    2.5972632830437284E+01   -1.8346275562764305E+01
N    3.3252169330990018E+00    2.7277837470255260E+01   -1.8517544795423991E+01
N    5.4883695461287338E+00    2.8459034059169401E+01   -1.8321464246890766E+01
N    3.2983663197225446E+00    2.9706396843971344E+01   -1.8194190474738949E+01
N    5.4837234234734407E+00    3.0993288050293216E+01   -1.8220509821872184E+01
N    3.2646886496434924E+00    3.2206621011949068E+01   -1.8107699824347357E+01
N    5.4146890984892995E+00    3.3448257736678904E+01   -1.7879147468032940E+01
N    7.6696808289074916E+00    2.2146271417487831E+01   -1.8436274669114713E+01
N    9.8763413170349796E+00    2.3429987158956912E+01   -1.8507370868689456E+01
N    7.6952283972778073E+00    2.4718473693770996E+01   -1.8515862120294063E+01
N    9.8584563026189702E+00    2.6033963962330176E+01   -1.8519179627809805E+01
N    7.6218725486914742E+00    2.7263516406723245E+01   -1.8428344592603207E+01
N    9.8896000953918044E+00    2.8501698486455805E+01   -1.8431799827172430E+01
N    7.6650841573175112E+00    2.9740934435386631E+01   -1.8313969967323580E+01
N    9.8680342581291818E+00    3.1033021018490984E+01   -1.8299412167224116E+01
N    7.6748584788235128E+00    3.2207856148811764E+01   -1.8050638336062864E+01
N    9.8426424399754424E+00    3.3502003423916328E+01   -1.8144996328193645E+01
B    1.0561897053379660E+01    9.6614681238518152E+00   -1.8043710964201249E+01
B    1.2788037708946126E+01    1.0940699800550334E+01   -1.8122164636465580E+01
B    1.0575609983292914E+01    1.2151993503698243E+01   -1.8098061632831875E+01
B    1.2842242163176435E+01    1.3452650132330264E+01   -1.8121525910078571E+01
B    1.0620418449396890E+01    1.4690754806589158E+01   -1.8124518585552956E+01
B    1.2860036837076112E+01    1.5921536172146618E+01   -1.8157026277210523E+01
B    1.0612819642293905E+01    1.7173829886652932E+01   -1.8175526400622999E+01
B    1.2842089314276556E+01    1.8473681687832716E+01   -1.8240982889671471E+01
B    1.0584067963172323E+01    1.9681555309316156E+01   -1.8257389911227381E+01
B    1.2729652324642183E+01    2.0911932923357831E+01   -1.8291037937242500E+01
B    1.4920246571913268E+01    9.7053300994715705E+00   -1.8317296427145081E+01
B    1.7120545555280220E+01    1.0925261175674089E+01   -1.8551513546369954E+01
B    1.5015248932769989E+01    1.2171998730376371E+01   -1.8229189697907170E+01
B    1.7164708124369394E+01    1.3436527712159336E+01   -1.8491848784981812E+01
B    1.5006995467014027E+01    1.4698226248938903E+01   -1.8194269260494309E+01
B    1.7144670063126515E+01    1.5966799612531394E+01   -1.8368734066364894E+01
B    1.5005342489560688E+01    1.7229817973741351E+01   -1.8327443440520266E+01
B    1.7128868651896582E+01    1.8479972969829284E+01   -1.8383489135723675E+01
B    1.4922066439484951E+01    1.9753184648511301E+01   -1.8401820201408302E+01
B    1.7069722379543350E+01    2.1021148541976473E+01   -1.8438424202385086E+01
B    1.9260125240163084E+01    9.6315012045154766E+00   -1.8659686953346284E+01
B    2.1342878932597767E+01    1.0913196446821546E+01   -1.8600780650076629E+01
B    1.9259661754539881E+01    1.2186652805571077E+01   -1.8816806825053352E+01
B    2.1421201438885078E+01    1.3438998290365788E+01   -1.8601791709897931E+01
B    1.9312069519247590E+01    1.4732889715272051E+01   -1.8629945080109664E+01
B    2.1504118356545906E+01    1.5936957358070190E+01   -1.8550395616053070E+01
B    1.9307592821738456E+01    1.7239547470713539E+01   -1.8492823079876263E+01
B    2.1485587364086292E+01    1.8467825808980749E+01   -1.8329316747527795E+01
B    1.9293890167989861E+01    1.9780894264493696E+01   -1.8464692786193176E+01
B    2.1428799353320297E+01    2.1022556063857081E+01   -1.8280383834274772E+01
N    1.2016456660783902E+01    9.6864011542650967E+00   -1.8003186200860156E+01
N    1.4238218608271520E+01    1.0959932923885768E+01   -1.8184999774147659E+01
N    1.2067614128764172E+01    1.2158207438788679E+01   -1.8073944976798035E+01
N    1.4287607443034780E+01    1.3430282213105722E+01   -1.8099582984813221E+01
N    1.2036557249554427E+01    1.4728368587001833E+01   -1.8057449945907134E+01
N    1.4313665999915424E+01    1.5960665251140050E+01   -1.8224336102950375E+01
N    1.2072375828053671E+01    1.7223298517348795E+01   -1.8134888148826306E+01
N    1.4291369505290765E+01    1.8451978607542951E+01   -1.8291160389248478E+01
N    1.2020131170384495E+01    1.9666682217769143E+01   -1.8240514711297802E+01
N    1.4218530130045250E+01    2.1022554593027397E+01   -1.8305487872010712E+01
N    1.6389315077018853E+01    9.6839854153574212E+00   -1.8538176870376212E+01
N    1.8539471081867536E+01    1.0887317701218755E+01   -1.8774669967525799E+01
N    1.6425766528316188E+01    1.2186783389573590E+01   -1.8471890713410133E+01
N    1.8586962442549165E+01    1.3447858327109214E+01   -1.8763937218809460E+01
N    1.6499748830586064E+01    1.4725941278008827E+01   -1.8339905443055283E+01
N    1.8591542976755331E+01    1.6024980918327529E+01   -1.8532357812232856E+01
N    1.6370078085368885E+01    1.7239242949997646E+01   -1.8336792822022005E+01
N    1.8596463561960125E+01    1.8493705123174031E+01   -1.8358945850265833E+01
N    1.6368611436863041E+01    1.9789701123067317E+01   -1.8538558901207541E+01
N    1.8541779818637746E+01    2.1015888074298310E+01   -1.8415343950773899E+01
N    2.0716842667736888E+01    9.6793386651383848E+00   -1.8743499068051808E+01
N    2.2827054478995962E+01    1.0966150908698797E+01   -1.8336344640834668E+01
N    2.0716351331651985E+01    1.2170160606010528E+01   -1.8783155940518835E+01
N    2.2843396233617799E+01    1.3458455657573310E+01   -1.8400668312670785E+01
N    2.0729576638566737E+01    1.4713162060976599E+01   -1.8632264430352908E+01
N    2.2969127638399325E+01    1.5936576858130490E+01   -1.8580152010746009E+01
N    2.0751958612114674E+01    1.7230211712138694E+01   -1.8411370524733680E+01
N    2.2940834683287196E+01    1.8443365055345904E+01   -1.8286190251204026E+01
N    2.0764199672628052E+01    1.9742286939934484E+01   -1.8396192218950926E+01
N    2.2856707413504012E+01    2.0962696506520615E+01   -1.8175535399832359E+01
B    1.0610905020888014E+01    2.2187398360672347E+01   -1.8398689463498883E+01
B    1.2702215521225453E+01    2.3466198155863207E+01   -1.8335074743678028E+01
B    1.0559224915065174E+01    2.4757249876583149E+01   -1.8552761121043872E+01
B    1.2773723132422987E+01    2.5935658035227878E+01   -1.8343266452081384E+01
B    1.0663395830304944E+01    2.7251342986792515E+01   -1.8493089823075298E+01
B    1.2801829879465934E+01    2.8459100870921468E+01   -1.8302294784376773E+01
B    1.0596463786823666E+01    2.9755283943065290E+01   -1.8363593819741496E+01
B    1.2734612650910920E+01    3.1026278049718492E+01   -1.8217085317664925E+01
B    1.0563115284861746E+01    3.2306324224874949E+01   -1.8323992677523140E+01
B    1.2763631954157443E+01    3.3485708507821364E+01   -1.8118556038044183E+01
B    1.4952527610771609E+01    2.2253034459828900E+01   -1.8359972735800600E+01
B    1.7116153141900757E+01    2.3491137554761945E+01   -1.8207870405466469E+01
B    1.4953810907597768E+01    2.4707687161988442E+01   -1.8263638046563287E+01
B    1.7062194076868209E+01    2.6038045685434227E+01   -1.8055764863155584E+01
B    1.4932125637369818E+01    2.7251181891328748E+01   -1.8168814155571216E+01
B    1.7073252163812640E+01    2.8554308463171349E+01   -1.8139675762472013E+01
B    1.4899062343456034E+01    2.9793095867446436E+01   -1.8221453253871708E+01
B    1.7143609116870415E+01    3.1065555337082035E+01   -1.8351562404174903E+01
B    1.4963942488232652E+01    3.2289623482976673E+01   -1.8281363233889476E+01
B    1.7123682510757916E+01    3.3585672269383977E+01   -1.8625346795425319E+01
B    1.9298059358225437E+01    2.2224911690599416E+01   -1.8169633773242452E+01
B    2.1462047238943391E+01    2.3513689758366972E+01   -1.8086940199515574E+01
B    1.9245605256075823E+01    2.4714231100412292E+01   -1.8098951430561740E+01
B    2.1450633469302623E+01    2.6028195526785641E+01   -1.8053576707297978E+01
B    1.9279088467726819E+01    2.7319729486202107E+01   -1.8033826593901463E+01
B    2.1478172348665026E+01    2.8540713032071370E+01   -1.8243856238556564E+01
B    1.9303316965347541E+01    2.9790280030278559E+01   -1.8246868390499117E+01
B    2.1475439559698383E+01    3.1061895364266881E+01   -1.8436385698729662E+01
B    1.9335631287164713E+01    3.2248784753996681E+01   -1.8579929173742663E+01
B    2.1499483520623144E+01    3.3535554183327989E+01   -1.8634214111595117E+01
N    1.2046187548771663E+01    2.2170259203887198E+01   -1.8331417252213615E+01
N    1.4188704356033462E+01    2.3526757130400743E+01   -1.8209281655264178E+01
N    1.2019905288774241E+01    2.4723105774652335E+01   -1.8465148237780877E+01
N    1.4222103710842712E+01    2.5964948377275906E+01   -1.8326226802655817E+01
N    1.2104375815747110E+01    2.7213440169430250E+01   -1.8316293815842634E+01
N    1.4188085557278910E+01    2.8481340333340270E+01   -1.8149092034142658E+01
N    1.2025512019442182E+01    2.9717046950865260E+01   -1.8253455662836487E+01
N    1.4176613771030489E+01    3.1028207215445640E+01   -1.8267573737013812E+01
N    1.2032507833809285E+01    3.2279657478792544E+01   -1.8243704001389034E+01
N    1.4222862509242495E+01    3.3542639908311962E+01   -1.8169011011604006E+01
N    1.6368229645919861E+01    2.2275551252058232E+01   -1.8324175424951935E+01
N    1.8531519134755282E+01    2.3483515559598100E+01   -1.8061152129250146E+01
N    1.6398937548635065E+01    2.4751264689949064E+01   -1.8174251865690632E+01
N    1.8519120624582555E+01    2.6062436866661422E+01   -1.8001426842122900E+01
N    1.6369243495144744E+01    2.7277958123203032E+01   -1.8153623561899895E+01
N    1.8575422414702455E+01    2.8519720191975725E+01   -1.8117537468856245E+01
N    1.6383445597947361E+01    2.9808698604100069E+01   -1.8222158487522293E+01
N    1.8571930523423731E+01    3.1034288428869374E+01   -1.8473443259032905E+01
N    1.6408085498515710E+01    3.2322058425179243E+01   -1.8421780609526117E+01
N    1.8596013110614777E+01    3.3527944812323931E+01   -1.8754885876118852E+01
N    2.0728612378538980E+01    2.2275535149963268E+01   -1.8195980556151682E+01
N    2.2882019238879050E+01    2.3485143399767757E+01   -1.8195200728911605E+01
N    2.0725212430071945E+01    2.4807488564949370E+01   -1.8037976153352396E+01
N    2.2953883515494621E+01    2.6019458800350307E+01   -1.8172050608719175E+01
N    2.0744399229677541E+01    2.7300839402478839E+01   -1.7986713064696410E+01
N    2.2914989422846599E+01    2.8478424744306377E+01   -1.8321812030049344E+01
N    2.0724039712303878E+01    2.9784846737843356E+01   -1.8309370763366324E+01
N    2.2903526546614749E+01    3.0994653052042146E+01   -1.8502189193539561E+01
N    2.0790490855097442E+01    3.2256903549170318E+01   -1.8608797431874390E+01
N    2.2889410757154291E+01    3.3580167450433443E+01   -1.8523911454774606E+01
O    4.0312727313922295E+01    1.8782893056519267E+01   -3.3742477170042098E+00
H    4.0486403702507680E+01    1.8500799427775465E+01   -2.4503515349928398E+00
H    3.9381764400361192E+01    1.8971161231698854E+01   -3.4881603199929869E+00
O    2.1194737575909695E+01    4.3176706974065340E+01   -1.5765879634403108E+00
H    2.0708004454316576E+01    4.2403184705058131E+01   -1.1549180238372425E+00
H    2.0687766196579009E+01    4.3970728652886329E+01   -1.4435819365653080E+00
O   -4.3576353317517302E+00    5.1459463409962893E+01   -2.7673401363462009E+00
H   -5.3073571660235990E+00    5.1122953679687690E+01   -2.5960862229072510E+00
H   -3.6977138115707646E+00    5.0996287165032570E+01   -2.2154923045127175E+00
O    6.2742887536069345E+00    9.1054398305028357E+01   -1.5473221082154291E+01
H    6.8205493444484997E+00    9.0879228485266637E+01   -1.4704999578988012E+01
H    5.3022120715448482E+00    9.0940566842019521E+01   -1.5252589679951967E+01
O    5.7606288033484866E+01   -3.8409393405481687E+01    5.4889569691975802E-02
H    5.7825497528228070E+01   -3.8284184645170235E+01    9.8445432852592762E-01
H    5.6759877393779249E+01   -3.7898110109380120E+01   -2.1527757289744337E-01
O   -4.9171695873379599E+00   -5.9889359177602714E+01   -1.5485182441053494E+01
H   -4.0533823192905087E+00   -5.9489442527485046E+01   -1.5601197012945594E+01
H   -4.7592972460228422E+00   -6.0847693348419760E+01   -1.5606622831576534E+01
O    4.5137837569359732E+01   -9.1653599454445480E+00   -1.2034985680909813E+01
H    4.4239466308622049E+01   -9.3310344856697753E+00   -1.1757045663443588E+01
H    4.4995561578323887E+01   -8.5020126888571124E+00   -1.2774594654504213E+01
O    4.6055073079800707E+01    2.1712674406098099E+01   -1.4977912934338736E+01
H    4.5935441276062569E+01    2.1479051039402336E+01   -1.3977603927957160E+01
H    4.6769019518898098E+01    2.2397079997737290E+01   -1.4898232860321611E+01
O    4.1897546791702325E+01   -1.8233919844099177E+01   -1.4770039130073780E+01
H    4.1358054502575321E+01   -1.7438371095749350E+01   -1.4792343069525598E+01
H    4.1317745190461238E+01   -1.8993101951609898E+01   -1.5025624801198820E+01
O    1.0412119909509421E+01    2.0014385987775714E+01   -1.2848999704364681E+01
H    1.1042028373524156E+01    2.0710299253275291E+01   -1.2900878639420137E+01
H    9.5772328954956514E+00    2.0541323648969854E+01   -1.2741467694789486E+01
O    1.9543250566774951E+01   -1.6140258438415330E+01   -1.2350071015187465E+00
H    1.9404500488538286E+01   -1.5188536754896280E+01   -1.4970043460796871E+00
H    2.0435375204541717E+01   -1.6306877464838085E+01   -1.6171121441837828E+00
O    2.6547104209664120E+01    1.6516547086111192E+01   -1.5664578297961402E+00
H    2.7478933362650871E+01    1.6765233292663300E+01   -1.3790574404791633E+00
H    2.6252951087202334E+01    1.7145968047056698E+01   -2.3100638196394958E+00
O    4.6514675321506065E+00   -2.7467159930325121E+01   -8.8854479184764390E+00
H    5.5386995058484514E+00   -2.7726939231617340E+01   -8.5907739689803027E+00
H    4.1979968742512916E+00   -2.7246369663529698E+01   -8.0143125793053027E+00
O    1.0922244386756562E+02    1.9512302526382715E+01   -1.4046569305331771E+00
H    1.1007627457235326E+02    1.9068068544651407E+01   -1.1963044238405760E+00
H    1.0890099198351496E+02    1.9246279132351098E+01   -2.3062397143410447E+00
O   -3.0357474766981742E+01    5.2068077068497288E+01   -5.3249383808915018E+00
H   -3.0225875270811091E+01    5.1954152376312067E+01   -4.3969171098787196E+00
H   -3.0935218677033916E+01    5.1316910776190959E+01   -5.6666744388361270E+00
O    4.8378643819826792E+01   -4.1837528210792961E+01   -2.4378570538330981E+00
H    4.9129275468966348E+01   -4.2470598103682171E+01   -2.2164942967698500E+00
H    4.8747665759165969E+01   -4.0880199733492617E+01   -2.3214853779614137E+00
O    2.6848240537508605E+01    6.9359840167303615E+00   -5.6765255323058117E+00
H    2.6778641356665748E+01    5.9774088753650068E+00   -5.8996179731547098E+00
H    2.7820020179333387E+01    7.1081741973016763E+00   -5.4506730386325506E+00
O    1.3216616751464088E+01    2.9890623925511271E+01   -1.2486642292130966E+01
H    1.2980183485463728E+01    3.0091911780669253E+01   -1.3425802662341457E+01
H    1.2536358894326202E+01    3.0193989225845041E+01   -1.1871456310677504E+01
O    5.7683981558277686E+01   -3.1297633541184673E+01   -7.6316806124957850E+00