 # Version information for this restart file 
 # current date 2020-04-18 07:18:21.631
 # current working dir /scratch/snx3000/gtocci/gtocci/MEMBRANES/AIMD_US_IONS_GRA/us_aimd_new/us_22
 # Program compiled at                              Fri Nov 22 15:19:42 CET 2019
 # Program compiled on                                                  daint102
 # Program compiled for                                   CRAY_XC50-gfortran_gpu
 # Source code revision number                                       git:a698b45
 &GLOBAL
   PRINT_LEVEL  LOW
   PROJECT_NAME GRAS
   RUN_TYPE  MD
   WALLTIME 86400
 &END GLOBAL
 &MOTION
   &MD
     ENSEMBLE  NVT
     STEPS  2000
     TIMESTEP     9.9999999999999989E-01
     STEP_START_VAL  70824
     TIME_START_VAL     7.0823999999944528E+04
     ECONS_START_VAL    -8.3040285462106167E+03
     TEMPERATURE     3.0000000000000000E+02
     TEMP_KIND  T
     &BAROSTAT
       PRESSURE     1.0000000000000000E+00
       TIMECON     9.9999999999999986E+01
       VIRIAL  Z
     &END BAROSTAT
     &THERMOSTAT
       TYPE  NOSE
       REGION  GLOBAL
       &NOSE
         LENGTH  4
         TIMECON     9.9999999999999986E+01
         MTS  2
         &COORD
               1.2822737247977495E-01   -4.3366882243963197E+01   -1.9849377039372435E+01    3.3384157000046791E+01
         &END COORD
         &VELOCITY
               3.7703202616633308E-06   -2.5881112196601044E-04    3.8263662059879402E-05   -2.3801766397610998E-05
         &END VELOCITY
         &MASS
               7.0145132684705392E+07    1.6237299232570693E+04    1.6237299232570693E+04    1.6237299232570693E+04
         &END MASS
         &FORCE
               6.1759615128280196E-10    2.9001464120940148E-09    8.4731830032000653E-09   -5.7045906015872415E-08
         &END FORCE
       &END NOSE
     &END THERMOSTAT
     &AVERAGES  T
       &RESTART_AVERAGES
         ITIMES_START  1
         AVECPU     3.1100853385155936E+01
         AVEHUGONIOT     0.0000000000000000E+00
         AVETEMP_BARO     0.0000000000000000E+00
         AVEPOT    -8.3065793976101759E+03
         AVEKIN     2.0515941595050866E+00
         AVETEMP     2.9992658488771610E+02
         AVEKIN_QM     0.0000000000000000E+00
         AVETEMP_QM     0.0000000000000000E+00
         AVEVOL     2.1331414786626332E+05
         AVECELL_A     4.8437460238123315E+01
         AVECELL_B     4.6608961231948342E+01
         AVECELL_C     9.4486306644280930E+01
         AVEALPHA     9.0000000000000057E+01
         AVEBETA     9.0000000000000057E+01
         AVEGAMMA     9.0000000000000057E+01
         AVE_ECONS     6.2008023339638740E-01
         AVE_PRESS     0.0000000000000000E+00
         AVE_PXX     0.0000000000000000E+00
       &END RESTART_AVERAGES
     &END AVERAGES
     &PRINT
       &TEMP_KIND  SILENT
       &END TEMP_KIND
     &END PRINT
   &END MD
   &FREE_ENERGY
     &METADYN
       MIN_DISP    -1.0000000000000000E+00
       OLD_HILL_NUMBER  0
       OLD_HILL_STEP  0
       DO_HILLS  F
       STEP_START_VAL  70824
       NHILLS_START_VAL  0
       &METAVAR
         SCALE     1.0000000000000000E+00
         COLVAR  1
       &END METAVAR
       &PRINT
         &COLVAR  SILENT
           COMMON_ITERATION_LEVELS  3
           &EACH
             MD  1
           &END EACH
         &END COLVAR
       &END PRINT
     &END METADYN
   &END FREE_ENERGY
   &CONSTRAINT
     &COLLECTIVE
       COLVAR  1
       INTERMOLECULAR  T
       &RESTRAINT
         K     4.4625385281452931E-04
       &END RESTRAINT
     &END COLLECTIVE
     &COLVAR_RESTART
           2.0786987461742079E+01
     &END COLVAR_RESTART
   &END CONSTRAINT
   &PRINT
     &TRAJECTORY  SILENT
       &EACH
         MD  1
       &END EACH
     &END TRAJECTORY
     &VELOCITIES  SILENT
       &EACH
         MD  1
       &END EACH
     &END VELOCITIES
     &FORCES  SILENT
       UNIT eV*angstrom^-1
       &EACH
         MD  1
       &END EACH
     &END FORCES
     &RESTART  SILENT
       &EACH
         MD  1
       &END EACH
     &END RESTART
     &RESTART_HISTORY  SILENT
       &EACH
         MD  100
       &END EACH
     &END RESTART_HISTORY
   &END PRINT
 &END MOTION
 &FORCE_EVAL
   METHOD  QS
   &DFT
     BASIS_SET_FILE_NAME /users/gtocci/scratch_daint_3000/data_cp2k//BASIS_MOLOPT
     POTENTIAL_FILE_NAME /users/gtocci/scratch_daint_3000/data_cp2k//GTH_POTENTIALS
     WFN_RESTART_FILE_NAME ./GRAS-RESTART.wfn
     CHARGE  -1
     &SCF
       MAX_SCF  10
       EPS_SCF     9.9999999999999995E-07
       SCF_GUESS  RESTART
       &OT  T
         MINIMIZER  DIIS
         PRECONDITIONER  FULL_KINETIC
       &END OT
       &OUTER_SCF  T
         EPS_SCF     9.9999999999999995E-07
         MAX_SCF  30
       &END OUTER_SCF
       &PRINT
         &RESTART  SILENT
           ADD_LAST  NUMERIC
           &EACH
             QS_SCF  50
           &END EACH
         &END RESTART
       &END PRINT
     &END SCF
     &QS
       MAP_CONSISTENT  T
       EXTRAPOLATION  ASPC
       EXTRAPOLATION_ORDER  4
     &END QS
     &MGRID
       NGRIDS  5
       CUTOFF     4.6000000000000000E+02
     &END MGRID
     &XC
       DENSITY_CUTOFF     1.0000000000000000E-10
       GRADIENT_CUTOFF     1.0000000000000000E-10
       TAU_CUTOFF     1.0000000000000000E-10
       &XC_GRID
         XC_DERIV  SPLINE2_SMOOTH
       &END XC_GRID
       &XC_FUNCTIONAL  NO_SHORTCUT
         &LIBXC  T
           FUNCTIONAL XC_GGA_X_OPTB88_VDW
         &END LIBXC
         &VWN  T
         &END VWN
       &END XC_FUNCTIONAL
       &VDW_POTENTIAL
         POTENTIAL_TYPE  NON_LOCAL
         &NON_LOCAL
           TYPE  DRSLL
           VERBOSE_OUTPUT  T
           KERNEL_FILE_NAME /users/gtocci/scratch_daint_3000/data_cp2k//vdW_kernel_table.dat
         &END NON_LOCAL
       &END VDW_POTENTIAL
     &END XC
     &REAL_TIME_PROPAGATION
       INITIAL_WFN  SCF_WFN
     &END REAL_TIME_PROPAGATION
     &PRINT
       &MULLIKEN  SILENT
         FILENAME =GRAS.mulliken
       &END MULLIKEN
     &END PRINT
   &END DFT
   &SUBSYS
     &CELL
       A     2.5632000000000001E+01    0.0000000000000000E+00    0.0000000000000000E+00
       B     0.0000000000000000E+00    2.4664400000000022E+01    0.0000000000000000E+00
       C     0.0000000000000000E+00    0.0000000000000000E+00    5.0000000000000028E+01
       MULTIPLE_UNIT_CELL  1 1 1
     &END CELL
     &COORD
C   -3.1084886490944128E+00   -2.6869021663508369E-01   -6.7740773157908185E-01
C   -1.6838980222571791E+00   -2.9468478810435172E-01   -7.5482814907934359E-01
C   -9.8608189814901048E-01    9.5539170712341059E-01   -8.4253054181367948E-01
C    4.1713068617434851E-01    9.5459498097814832E-01   -8.4315294718075195E-01
C   -3.1588968289911139E+00    2.1850427252824134E+00   -8.0314302824898798E-01
C   -1.7138176144746327E+00    2.1825436116671542E+00   -8.2487660555710074E-01
C   -9.9794766514303790E-01    3.4319060286345597E+00   -8.3987975503463042E-01
C    4.3715691718779698E-01    3.4286235522195190E+00   -8.6234087706881135E-01
C   -3.1455038294766280E+00    4.6577583214583216E+00   -9.5657715782042196E-01
C   -1.7310889405720489E+00    4.6681990645016800E+00   -9.4392689670497965E-01
C   -1.0575950120491704E+00    5.8832926356735413E+00   -1.0520215036730112E+00
C    3.4635238072060248E-01    5.9675140506697630E+00   -9.8466645597164904E-01
C   -3.1727141461901152E+00    7.1537035378953728E+00   -1.0191146281085512E+00
C   -1.7351120279780328E+00    7.1649542909165795E+00   -1.0009493581849940E+00
C   -1.0149721079927512E+00    8.4118284296856629E+00   -1.0949460562917948E+00
C    4.1452138604516919E-01    8.4157912121284664E+00   -1.0513261709298574E+00
C   -3.1417817107880546E+00    9.6008708232026851E+00   -1.0220221457195460E+00
C   -1.7167319316454399E+00    9.6531241493864766E+00   -1.0372652240444933E+00
C   -9.5205326134077051E-01   -1.5352709773471813E+00   -6.5926366297350758E-01
C    5.1179637230352393E-01   -1.5285608065724356E+00   -5.9869180966857838E-01
C    1.1480366580805470E+00   -2.8377340002561890E-01   -6.7357965795073216E-01
C    2.6007650991453088E+00   -2.4735705615273101E-01   -6.5487074455539473E-01
C    3.3147588051727914E+00    9.9004349511168566E-01   -7.5757661852920777E-01
C    4.7803790986042172E+00    1.0091747142976222E+00   -7.7492541055396680E-01
C    1.1609636992361325E+00    2.1862022662174989E+00   -8.6918778171794209E-01
C    2.6086680825189177E+00    2.2108549800202328E+00   -9.0272854738707131E-01
C    3.2585145149174521E+00    3.4384543398195997E+00   -8.6436355219607475E-01
C    4.6885842516864553E+00    3.5208164508432018E+00   -9.1468912627198318E-01
C    1.1073142904407547E+00    4.7297818422665197E+00   -8.6390189885656421E-01
C    2.5150452031371806E+00    4.7063904857465948E+00   -8.5610654425284571E-01
C    3.2569663481625124E+00    5.9536108564503172E+00   -8.8349607909922623E-01
C    4.6744434821754304E+00    5.9593102141291796E+00   -8.4321106117138622E-01
C    1.0964926841915386E+00    7.1661934089748689E+00   -9.7752612265694128E-01
C    2.5254796876759973E+00    7.1867486374952119E+00   -9.1454093651095059E-01
C    3.2505554737260680E+00    8.3828831163315929E+00   -9.0137473421072334E-01
C    4.6998628177559931E+00    8.4088636459190997E+00   -8.2067526108996947E-01
C    1.1366220052384812E+00    9.6401115898862582E+00   -9.8583591680365978E-01
C    2.5966631178211950E+00    9.6149265111114470E+00   -9.5002472535234062E-01
C    3.2948623673007233E+00   -1.4747086753760603E+00   -6.0443013402239421E-01
C    4.7382741309506491E+00   -1.4727752235566542E+00   -5.8885424473793324E-01
C    5.4263550999368215E+00   -2.5513006578064262E-01   -6.8358339351032582E-01
C    6.8740329260374935E+00   -2.1110915801403660E-01   -5.3915340870026618E-01
C    7.6138886350154946E+00    9.8997384775774577E-01   -7.0736944364857546E-01
C    9.0232426287259937E+00    1.0216783863130272E+00   -6.7068845641667774E-01
C    5.4564397310625399E+00    2.2664388464347138E+00   -8.0661057652713253E-01
C    6.8671068733475451E+00    2.2327340822352846E+00   -8.4687127840907539E-01
C    7.5462342810617908E+00    3.4854463759816650E+00   -8.7869363962793323E-01
C    9.0108216141536701E+00    3.4607284839625461E+00   -8.4479335515654463E-01
C    5.3755806638907266E+00    4.7153783024442681E+00   -9.0287599526851703E-01
C    6.7912529173839147E+00    4.7247272693841440E+00   -9.2370780405262665E-01
C    7.5345543590549040E+00    5.9436109051672430E+00   -8.1706444483577223E-01
C    8.9819590329433083E+00    5.9642324976748515E+00   -8.2189079216545002E-01
C    5.3903062180904513E+00    7.1644073978242204E+00   -7.9483335702460689E-01
C    6.7871641147598689E+00    7.1775733622237894E+00   -7.1377239827092265E-01
C    7.5287744744461031E+00    8.3907902520132911E+00   -7.3723082965624509E-01
C    8.9827503624247402E+00    8.4008059306908613E+00   -7.2361311822261465E-01
C    5.4159524922855988E+00    9.6301097694792670E+00   -6.9859226950254627E-01
C    6.8002230302308195E+00    9.6048048139814224E+00   -6.4596952863978607E-01
C    7.5813338489613260E+00   -1.4350384587286671E+00   -4.1013932639657091E-01
C    9.0345769937530367E+00   -1.4439174589815087E+00   -4.1176370453908961E-01
C   -3.1379183002517834E+00    1.2088259509377217E+01   -1.0566808732386634E+00
C   -1.7451920562080516E+00    1.2097046572385464E+01   -9.7670123571664424E-01
C   -1.0010123159642137E+00    1.3369406232921321E+01   -9.4514291670531847E-01
C    4.4410716369778735E-01    1.3328100151990851E+01   -8.3112700491849545E-01
C   -3.1308381099998015E+00    1.4563127697604513E+01   -9.3234970267516482E-01
C   -1.6721427239562963E+00    1.4604497415610751E+01   -9.0736068181498519E-01
C   -9.1546834263877974E-01    1.5789134962340110E+01   -8.8610896869126343E-01
C    4.9342107116504369E-01    1.5749382037257105E+01   -8.6319228571395901E-01
C   -3.0943784417821685E+00    1.7010088933088266E+01   -9.9139886608940342E-01
C   -1.6461066943720517E+00    1.7021078762318233E+01   -8.4738522198289445E-01
C   -9.2948161716842914E-01    1.8239774529612625E+01   -9.0003905148257179E-01
C    4.9194138266775034E-01    1.8280151796324425E+01   -8.3701790589349878E-01
C   -3.0927771926652610E+00    1.9461347929160922E+01   -7.9286831961618520E-01
C   -1.6717818364813022E+00    1.9464745348621726E+01   -8.8986834215091437E-01
C   -9.6110681798418052E-01    2.0680661779987958E+01   -7.7450831785887364E-01
C    4.6693758602081886E-01    2.0693799185313832E+01   -7.9580308540940514E-01
C   -3.1160384310058560E+00    2.1931552220816595E+01   -7.4520649491314872E-01
C   -1.7095524384104672E+00    2.1917941842745691E+01   -7.1427937947108011E-01
C   -1.0248909414603864E+00    1.0892944658607361E+01   -1.0254143016223130E+00
C    4.5774578200973209E-01    1.0892258360861531E+01   -8.7732108542259912E-01
C    1.1709028128122754E+00    1.2080001454411649E+01   -8.0030487208762258E-01
C    2.5661556475608394E+00    1.2084186840989432E+01   -7.4684692414391940E-01
C    3.2610930884044920E+00    1.3331599309621218E+01   -7.5129876130303863E-01
C    4.7013097614184352E+00    1.3347128389535477E+01   -5.6301083741535951E-01
C    1.1570710500845598E+00    1.4523542100708067E+01   -8.2212666053461447E-01
C    2.5904944636175973E+00    1.4546417438541754E+01   -7.1420083294636127E-01
C    3.2570524462791504E+00    1.5792545550214685E+01   -7.1467570752594378E-01
C    4.6880354090996494E+00    1.5828209164023741E+01   -6.4790119153828840E-01
C    1.1678229556729600E+00    1.7013246133426975E+01   -8.0420503914718644E-01
C    2.6190895320633798E+00    1.7038655417171686E+01   -7.9750148599204840E-01
C    3.3661338950990944E+00    1.8273035188415118E+01   -7.7386581023183931E-01
C    4.7470620092772444E+00    1.8268807126642134E+01   -7.0313146141524396E-01
C    1.2423737634116219E+00    1.9513916830299173E+01   -8.0217896639170505E-01
C    2.6262957167811494E+00    1.9512625864876664E+01   -8.1353964887422148E-01
C    3.3385205840651353E+00    2.0715971818084622E+01   -6.8622177989228150E-01
C    4.7522310825123322E+00    2.0755618818207775E+01   -6.2635401626166431E-01
C    1.2216384336857089E+00    2.1895338019980059E+01   -6.7650575055883466E-01
C    2.6736106785497680E+00    2.1919575148834195E+01   -6.7187559060488622E-01
C    3.2831888272714211E+00    1.0850038199421707E+01   -7.7337483060343959E-01
C    4.7195629527669505E+00    1.0860485060372529E+01   -6.8765887458719310E-01
C    5.4664055656557871E+00    1.2089638450036253E+01   -5.0193537545481914E-01
C    6.8547556874124895E+00    1.2062930843813778E+01   -4.7747908678187473E-01
C    7.5625298339090792E+00    1.3322947002750618E+01   -5.0989041106295896E-01
C    8.9753970303582857E+00    1.3296514931985964E+01   -5.4959635176628707E-01
C    5.3911496680097066E+00    1.4621358653137149E+01   -5.6005407490433790E-01
C    6.8253183812426803E+00    1.4564988754725434E+01   -5.6473990525274276E-01
C    7.5613612450569896E+00    1.5787408001083614E+01   -5.4861781816502375E-01
C    9.0159839482877455E+00    1.5819095567486690E+01   -5.3579177148096013E-01
C    5.4654965899009467E+00    1.7066098571115649E+01   -6.2595307824129531E-01
C    6.8750232286355617E+00    1.7058066719605989E+01   -5.5608484136940872E-01
C    7.5878054164651765E+00    1.8259430132582001E+01   -5.5049368316401925E-01
C    9.0369461034218066E+00    1.8262470680707658E+01   -4.3671116721710024E-01
C    5.4736286986320772E+00    1.9527765291370542E+01   -6.1974915629989213E-01
C    6.8923387332365520E+00    1.9522154186261872E+01   -5.7536865247083135E-01
C    7.5889495469653507E+00    2.0774134001952294E+01   -6.0083734064479810E-01
C    9.0346482044326457E+00    2.0778100152459228E+01   -4.2778030362244518E-01
C    5.4584531036560762E+00    2.1977488409575926E+01   -5.9465573757844958E-01
C    6.8587890909807259E+00    2.1975043697155538E+01   -4.9217986679177078E-01
C    7.5294624022988250E+00    1.0849368708099561E+01   -5.3018039683424933E-01
C    8.9832634800800690E+00    1.0841745539652283E+01   -6.4430471331444672E-01
C    9.7510067921811121E+00   -1.9490409249992457E-01   -5.5715253423262878E-01
C    1.1162023026242410E+01   -2.4685628398521633E-01   -5.5278628706068100E-01
C    1.1889684238677132E+01    9.6948689800353616E-01   -4.7631264829484810E-01
C    1.3347952201727265E+01    9.8947061424354499E-01   -5.1962739599625329E-01
C    9.7443828502682432E+00    2.2278206469182669E+00   -6.7424866966822150E-01
C    1.1196596740082507E+01    2.2504264936887757E+00   -5.7428238748467264E-01
C    1.1872383553987962E+01    3.4755351938198218E+00   -5.6492507926765811E-01
C    1.3273393173025504E+01    3.4704236292784993E+00   -6.4034662950096366E-01
C    9.6891123184660106E+00    4.7193998010801925E+00   -7.1985056542295534E-01
C    1.1141824847867841E+01    4.7060470085812360E+00   -5.8685567189626819E-01
C    1.1832921840463355E+01    5.9581908074782834E+00   -6.4776995499102730E-01
C    1.3275356982123469E+01    5.9426407139989541E+00   -7.3034421478631217E-01
C    9.7167697371378825E+00    7.1704646082535337E+00   -7.5829124283339955E-01
C    1.1140048243662006E+01    7.1491182434277931E+00   -6.5682322544179805E-01
C    1.1800639943631088E+01    8.3824857894996203E+00   -6.7297323998905445E-01
C    1.3256329363551641E+01    8.4323954503687908E+00   -7.0578823737490703E-01
C    9.7066837554195757E+00    9.6096360915245267E+00   -7.3796176206230113E-01
C    1.1114550639012226E+01    9.5960756380955665E+00   -7.2211549874809589E-01
C    1.1893425219199761E+01   -1.4734572472116003E+00   -4.6466651368075895E-01
C    1.3311556403392206E+01   -1.4750443425004915E+00   -5.2496975167345750E-01
C    1.4020155495762026E+01   -2.8325432057230970E-01   -5.9607318972842271E-01
C    1.5440524577761776E+01   -2.7596568902782120E-01   -6.0709720913066600E-01
C    1.6064982010265410E+01    9.7598099189284238E-01   -7.0850685175262951E-01
C    1.7471134534014336E+01    9.8851815026773637E-01   -6.6654312688577810E-01
C    1.4001807325169366E+01    2.2539783501871411E+00   -5.8379959093433353E-01
C    1.5412242414337758E+01    2.2289473212495019E+00   -6.9509029128227273E-01
C    1.6083498238934823E+01    3.4704977976455291E+00   -7.0998788116918010E-01
C    1.7498314213141704E+01    3.4754538541796389E+00   -8.3234418098231011E-01
C    1.3956593542953698E+01    4.7014050918758929E+00   -7.2961642917449265E-01
C    1.5379108518834373E+01    4.7044158010273947E+00   -6.9765973917725776E-01
C    1.6063905243134503E+01    5.9575739935169638E+00   -7.8064484021775027E-01
C    1.7477565893149695E+01    5.9095060498088037E+00   -8.6543568937440241E-01
C    1.3987792369257912E+01    7.1893843135576123E+00   -7.2317356443839986E-01
C    1.5402889523993332E+01    7.2126985231520351E+00   -7.5945966796209552E-01
C    1.6120016535940703E+01    8.4440315325420894E+00   -8.2163040218068528E-01
C    1.7531528801278217E+01    8.4094509068467964E+00   -9.2694545774445947E-01
C    1.3949751670499014E+01    9.6634633458366466E+00   -7.3586853462561219E-01
C    1.5388301514943469E+01    9.6788442764957932E+00   -8.1718524758955680E-01
C    1.6133852027570022E+01   -1.4853494817858282E+00   -6.6585203378762292E-01
C    1.7536799544870004E+01   -1.5006573206319740E+00   -5.8272321739152133E-01
C    1.8218069296708041E+01   -2.6184703784470709E-01   -5.8497166681346213E-01
C    1.9648825226750496E+01   -2.2374507101069308E-01   -5.2214551477744275E-01
C    2.0338039494448896E+01    9.9547441278471605E-01   -6.3611625152687867E-01
C    2.1764483965452051E+01    9.7539101003208173E-01   -6.8005690458675183E-01
C    1.8191904887326594E+01    2.2400695746378445E+00   -7.0369157127571247E-01
C    1.9648105525095655E+01    2.2141835858849008E+00   -7.6769764682849573E-01
C    2.0306610287976461E+01    3.4383809147750930E+00   -9.2824590270975227E-01
C    2.1744811052376402E+01    3.4152985241432168E+00   -8.6964098692071468E-01
C    1.8177668213868014E+01    4.6622797898215236E+00   -8.2453782197445447E-01
C    1.9618642707376424E+01    4.6697545717352051E+00   -9.3372286271735061E-01
C    2.0363753408170147E+01    5.8926075117776620E+00   -8.9383367427395277E-01
C    2.1763645825266092E+01    5.8933695542529962E+00   -9.7682109724574562E-01
C    1.8236922607295007E+01    7.1498283980791602E+00   -1.0098173037814151E+00
C    1.9637306887300355E+01    7.1467626120681009E+00   -1.0355784201036249E+00
C    2.0324372445583823E+01    8.3829936953186781E+00   -9.8951542864808539E-01
C    2.1727964494647559E+01    8.3638764606872833E+00   -9.8401407094118476E-01
C    1.8236630817176394E+01    9.6640026840156938E+00   -9.0616185514218972E-01
C    1.9640075507454579E+01    9.6198268585523223E+00   -1.0299876895124618E+00
C    2.0367983575260823E+01   -1.4726298501371664E+00   -5.1053793601231956E-01
C    2.1787287626987645E+01   -1.4930185451151563E+00   -6.3262861774242696E-01
C    9.6795919873033913E+00    1.2058618347991102E+01   -6.3957560842122041E-01
C    1.1105718313859798E+01    1.2080576142718545E+01   -6.9396435016201508E-01
C    1.1793221400780912E+01    1.3301162307891115E+01   -7.3897733329782467E-01
C    1.3216975647376344E+01    1.3326546273471390E+01   -6.4892426901723155E-01
C    9.6922637857032878E+00    1.4551015086453358E+01   -6.3923772588799821E-01
C    1.1128670899469011E+01    1.4556686375233697E+01   -6.9410569001107614E-01
C    1.1802419747902237E+01    1.5787381570806987E+01   -5.5464389609732112E-01
C    1.3248394326535108E+01    1.5817262889212300E+01   -5.1230242871750364E-01
C    9.7491238106134901E+00    1.7037029954747716E+01   -4.5211619575179457E-01
C    1.1161571047471476E+01    1.7037307619330832E+01   -4.7933318902207356E-01
C    1.1832573829692333E+01    1.8286029498994449E+01   -3.8471610336514517E-01
C    1.3236964702065675E+01    1.8261219603510355E+01   -3.1468703266827203E-01
C    9.7008619787038839E+00    1.9517434015752485E+01   -3.9625224741754422E-01
C    1.1141237397335416E+01    1.9510787014805675E+01   -3.8941952899216686E-01
C    1.1867693724484138E+01    2.0738333086446076E+01   -3.2121764817990239E-01
C    1.3299213389265335E+01    2.0736945792185686E+01   -3.9921399939631219E-01
C    9.7547141751840503E+00    2.1978310322773126E+01   -3.9122653461955115E-01
C    1.1164945592887195E+01    2.1965740126635083E+01   -3.9411931221414848E-01
C    1.1821920416549402E+01    1.0849349406726372E+01   -7.1406485559873356E-01
C    1.3245533293268464E+01    1.0897218443693655E+01   -7.4330304522186552E-01
C    1.3956705689607769E+01    1.2126764436809795E+01   -7.1201565132163713E-01
C    1.5395914181981851E+01    1.2120000864874710E+01   -7.0685289268585660E-01
C    1.6089611029639350E+01    1.3396903695884896E+01   -7.7835818279288493E-01
C    1.7513317551174467E+01    1.3339470849936239E+01   -8.6028704814209134E-01
C    1.3906910990692872E+01    1.4584520649480259E+01   -6.0783077932701901E-01
C    1.5344725799996500E+01    1.4578102385400149E+01   -7.0750265995073347E-01
C    1.6061329355452632E+01    1.5818901240336743E+01   -7.1999066235734210E-01
C    1.7466246812712697E+01    1.5844556412425179E+01   -8.2241587082884093E-01
C    1.3953683773408470E+01    1.7045864482074311E+01   -3.5301542789109192E-01
C    1.5378337057268199E+01    1.7060550025283693E+01   -4.7465669476063704E-01
C    1.6114643524831227E+01    1.8259858116433804E+01   -4.6987139185372229E-01
C    1.7523501764857361E+01    1.8256519048561149E+01   -6.4273260628252393E-01
C    1.3965445695458868E+01    1.9516969235109663E+01   -3.3695285706240319E-01
C    1.5410038234877554E+01    1.9510709749113527E+01   -4.4499840108786815E-01
C    1.6099802293412598E+01    2.0734171950347843E+01   -6.0716325099935553E-01
C    1.7521048066164720E+01    2.0715028618040421E+01   -5.9018347420998274E-01
C    1.3984368814583576E+01    2.1928357092788399E+01   -5.3129009248805559E-01
C    1.5386112779363918E+01    2.1946595148058375E+01   -6.2217355467045199E-01
C    1.6092251111734527E+01    1.0897223540551291E+01   -7.5965589601628714E-01
C    1.7495752107698316E+01    1.0882130902438018E+01   -8.7814494062332749E-01
C    1.8221204940290363E+01    1.2117282012420548E+01   -9.4974019502574414E-01
C    1.9641104586905325E+01    1.2073107904406045E+01   -9.7238697380612482E-01
C    2.0338874591715825E+01    1.3314651331949328E+01   -1.0101290996152732E+00
C    2.1780151709278947E+01    1.3343013294259400E+01   -9.9730124015599553E-01
C    1.8173234274353682E+01    1.4614217228251370E+01   -9.4778956629232458E-01
C    1.9601747268116934E+01    1.4546604308449075E+01   -9.2023892435809906E-01
C    2.0342481806621098E+01    1.5792410977751306E+01   -9.1414496089959341E-01
C    2.1793306906863851E+01    1.5807498599817308E+01   -9.8651953174545581E-01
C    1.8194005987557670E+01    1.7043198516390504E+01   -7.6971106429147029E-01
C    1.9608625423498239E+01    1.7031706775447784E+01   -8.3800547919267310E-01
C    2.0411874201867743E+01    1.8217852747370170E+01   -8.0785851870314573E-01
C    2.1835486735406626E+01    1.8227034255478426E+01   -8.4229539857505431E-01
C    1.8232456557619642E+01    1.9497933392596970E+01   -6.2086686180350015E-01
C    1.9682315535479198E+01    1.9456108447213321E+01   -6.9191266304808297E-01
C    2.0410553343682782E+01    2.0710762379636972E+01   -6.0169238482709542E-01
C    2.1810286742103685E+01    2.0691143896952244E+01   -6.9725820102359104E-01
C    1.8239764691544739E+01    2.1914614865093707E+01   -5.2874042665267140E-01
C    1.9691749508544049E+01    2.1934475228234174E+01   -4.8727448443808291E-01
C    2.0364885498248029E+01    1.0846425823394602E+01   -1.0317206527488527E+00
C    2.1789108678091857E+01    1.0859107038142209E+01   -9.5750436383869886E-01
O    2.8619514268890634E+02    1.0729557590888761E+02    1.3626143052063121E+01
H    2.8624415481464274E+02    1.0639433747953865E+02    1.3207840416485050E+01
H    2.8674442786758379E+02    1.0785733220689785E+02    1.2968171524058507E+01
O    2.3274641627815942E+02    6.7287464369867095E+01    1.5416260203179039E+01
H    2.3307879576635673E+02    6.7637792127697082E+01    1.4557019769099700E+01
H    2.3343335100446700E+02    6.6720116321763157E+01    1.5854344141858155E+01
O    1.3667402011399264E+02    1.6637401421686997E+02    6.9821156607412007E+00
H    1.3653783956973194E+02    1.6553305885911669E+02    7.4642496737462452E+00
H    1.3619635825924249E+02    1.6621067144773025E+02    6.1575443374245404E+00
O    2.6910825482209231E+02    9.8350174648026893E+01    7.5145576394793077E+00
H    2.6977699002458985E+02    9.8593890579690367E+01    8.1918955161427487E+00
H    2.6839101566757495E+02    9.8988779345897299E+01    7.7598300550954713E+00
O    2.4389478768302371E+02    1.5902608435579290E+02    1.2064453832967736E+01
H    2.4443046068673559E+02    1.5834557395865667E+02    1.2431135064829961E+01
H    2.4327712729995355E+02    1.5850101588518481E+02    1.1550565543253192E+01
O    1.8787921906426740E+02    3.7795171835310818E+01    1.2835961310980434E+01
H    1.8869013168144372E+02    3.8327917742242199E+01    1.2718552205596106E+01
H    1.8764510920895850E+02    3.8223698631129743E+01    1.3733025651693598E+01
O    2.2668992688898291E+02    1.4650649853462224E+02    6.3853722398188575E+00
H    2.2759493617888512E+02    1.4691605758366538E+02    6.1858860002987006E+00
H    2.2600419726282703E+02    1.4704129370548944E+02    5.8879245809007497E+00
O    2.5393827166595591E+02    2.5759063346186458E+01    1.6509692013417723E+01
H    2.5447982595730517E+02    2.5950755105449158E+01    1.5632101253545851E+01
H    2.5340028319968127E+02    2.6581230668910205E+01    1.6744833551904303E+01
O    1.8513001785933332E+02    1.2328662800176393E+02    1.2695338071732495E+01
H    1.8565609183026720E+02    1.2246984817600597E+02    1.2298890038801375E+01
H    1.8468390771817587E+02    1.2376676162083693E+02    1.2001167208768249E+01
O    2.5231985894488770E+02    1.8554123320867936E+02    2.4379760148612819E+00
H    2.5158593477126820E+02    1.8623300282403858E+02    2.4263454418551915E+00
H    2.5218123804031018E+02    1.8483795959468830E+02    1.7657695836070761E+00
O    1.5650559693513139E+02    1.5092518187026667E+02    7.8861160782530746E+00
H    1.5586411023323615E+02    1.5175577179700636E+02    7.7346857439722347E+00
H    1.5618795617284397E+02    1.5043236279166624E+02    7.1203342501814042E+00
O    1.8622574670079769E+02    1.4749111771907312E+02    5.1382015009797986E+00
H    1.8586482127415258E+02    1.4673175753979885E+02    5.6142445595654955E+00
H    1.8701590737446043E+02    1.4766065143948154E+02    5.6872597363234272E+00
O    2.4413729043159950E+02   -3.7738390155641026E+00    1.3632817316546081E+01
H    2.4455621916855182E+02   -3.7427144203713403E+00    1.2732650595971290E+01
H    2.4480176873360332E+02   -4.3619445326406945E+00    1.4195898004440490E+01
O    2.2573210324875450E+02   -6.6669224810077017E+00    2.6316807408233927E+00
H    2.2571140868717706E+02   -6.5579104392807128E+00    3.5691603233689091E+00
H    2.2520495974576659E+02   -7.3716282881594024E+00    2.2333514554701046E+00
O    1.4870999754236496E+02    2.6477959126693600E+02    5.3135230371049991E+00
H    1.4908564950441323E+02    2.6416392526079801E+02    6.0214635144433082E+00
H    1.4775539620522150E+02    2.6459160291475951E+02    5.2816836253823656E+00
O    1.4387907064346786E+02    1.7806856768235411E+02    2.3975849261407105E+00
H    1.4426594047404123E+02    1.7721473150568210E+02    2.2106336110094205E+00
H    1.4294930282178913E+02    1.7775415223203180E+02    2.2207435955960104E+00
O    2.2839741877399047E+02    1.4030139454776415E+02    1.2400789563016003E+01
H    2.2895961853181225E+02    1.4044916643619467E+02    1.3201563079436854E+01
H    2.2830453849552450E+02    1.3934143870011266E+02    1.2199974999786132E+01
O    1.9019561330513000E+02    9.9887693277672398E+01    8.8598917488792246E+00
H    1.9046415887657375E+02    1.0081901994904791E+02    8.9449136565729876E+00
H    1.8992967409061390E+02    9.9734026013574422E+01    9.7728536322715147E+00
O    1.5771579253072483E+02    1.2530062121908462E+02    1.6047809706110311E+01
H    1.5845103496005459E+02    1.2486614523104106E+02    1.5532244282084031E+01