 # Version information for this restart file 
 # current date 2020-04-18 06:49:43.179
 # current working dir /scratch/snx3000/gtocci/gtocci/MEMBRANES/AIMD_US_IONS_GRA/us_aimd_new/us_11
 # Program compiled at                              Fri Nov 22 15:19:42 CET 2019
 # Program compiled on                                                  daint102
 # Program compiled for                                   CRAY_XC50-gfortran_gpu
 # Source code revision number                                       git:a698b45
 &GLOBAL
   PRINT_LEVEL  LOW
   PROJECT_NAME GRAS
   RUN_TYPE  MD
   WALLTIME 86400
 &END GLOBAL
 &MOTION
   &MD
     ENSEMBLE  NVT
     STEPS  2000
     TIMESTEP     9.9999999999999989E-01
     STEP_START_VAL  74990
     TIME_START_VAL     7.4989999999938125E+04
     ECONS_START_VAL    -8.3018276146680637E+03
     TEMPERATURE     3.0000000000000000E+02
     TEMP_KIND  T
     &BAROSTAT
       PRESSURE     1.0000000000000000E+00
       TIMECON     9.9999999999999986E+01
       VIRIAL  Z
     &END BAROSTAT
     &THERMOSTAT
       TYPE  NOSE
       REGION  GLOBAL
       &NOSE
         LENGTH  4
         TIMECON     9.9999999999999986E+01
         MTS  2
         &COORD
               1.9544582978805260E-02   -2.0005295975832116E+01   -1.8471616043344525E+01    2.1903401798580390E+01
         &END COORD
         &VELOCITY
               2.7568266627441290E-06   -3.0482550680886451E-04   -4.5052761367822455E-04   -2.3163058004062849E-04
         &END VELOCITY
         &MASS
               7.0145132684705392E+07    1.6237299232570693E+04    1.6237299232570693E+04    1.6237299232570693E+04
         &END MASS
         &FORCE
              -6.5562511314554678E-10   -2.5677611016943926E-08    3.4408575751176029E-08    1.4446511683649045E-07
         &END FORCE
       &END NOSE
     &END THERMOSTAT
     &AVERAGES  T
       &RESTART_AVERAGES
         ITIMES_START  1
         AVECPU     3.0965543217633719E+01
         AVEHUGONIOT     0.0000000000000000E+00
         AVETEMP_BARO     0.0000000000000000E+00
         AVEPOT    -8.3067302152239627E+03
         AVEKIN     2.0539057271734276E+00
         AVETEMP     3.0025242648128619E+02
         AVEKIN_QM     0.0000000000000000E+00
         AVETEMP_QM     0.0000000000000000E+00
         AVEVOL     2.1331414786626332E+05
         AVECELL_A     4.8437460238121709E+01
         AVECELL_B     4.6608961231948342E+01
         AVECELL_C     9.4486306644281314E+01
         AVEALPHA     9.0000000000000028E+01
         AVEBETA     9.0000000000000028E+01
         AVEGAMMA     9.0000000000000028E+01
         AVE_ECONS    -5.7740634754380926E+02
         AVE_PRESS     0.0000000000000000E+00
         AVE_PXX     0.0000000000000000E+00
       &END RESTART_AVERAGES
     &END AVERAGES
     &PRINT
       &TEMP_KIND  SILENT
       &END TEMP_KIND
     &END PRINT
   &END MD
   &FREE_ENERGY
     &METADYN
       MIN_DISP    -1.0000000000000000E+00
       OLD_HILL_NUMBER  0
       OLD_HILL_STEP  0
       DO_HILLS  F
       STEP_START_VAL  74990
       NHILLS_START_VAL  0
       &METAVAR
         SCALE     1.0000000000000000E+00
         COLVAR  1
       &END METAVAR
       &PRINT
         &COLVAR  SILENT
           COMMON_ITERATION_LEVELS  3
           &EACH
             MD  1
           &END EACH
         &END COLVAR
       &END PRINT
     &END METADYN
   &END FREE_ENERGY
   &CONSTRAINT
     &COLLECTIVE
       COLVAR  1
       INTERMOLECULAR  T
       &RESTRAINT
         K     4.4625385281452931E-04
       &END RESTRAINT
     &END COLLECTIVE
     &COLVAR_RESTART
           1.0393493730871038E+01
     &END COLVAR_RESTART
   &END CONSTRAINT
   &PRINT
     &TRAJECTORY  SILENT
       &EACH
         MD  1
       &END EACH
     &END TRAJECTORY
     &VELOCITIES  SILENT
       &EACH
         MD  1
       &END EACH
     &END VELOCITIES
     &FORCES  SILENT
       UNIT eV*angstrom^-1
       &EACH
         MD  1
       &END EACH
     &END FORCES
     &RESTART  SILENT
       &EACH
         MD  1
       &END EACH
     &END RESTART
     &RESTART_HISTORY  SILENT
       &EACH
         MD  100
       &END EACH
     &END RESTART_HISTORY
   &END PRINT
 &END MOTION
 &FORCE_EVAL
   METHOD  QS
   &DFT
     BASIS_SET_FILE_NAME /users/gtocci/scratch_daint_3000/data_cp2k//BASIS_MOLOPT
     POTENTIAL_FILE_NAME /users/gtocci/scratch_daint_3000/data_cp2k//GTH_POTENTIALS
     WFN_RESTART_FILE_NAME ./GRAS-RESTART.wfn
     CHARGE  -1
     &SCF
       MAX_SCF  10
       EPS_SCF     9.9999999999999995E-07
       SCF_GUESS  RESTART
       &OT  T
         MINIMIZER  DIIS
         PRECONDITIONER  FULL_KINETIC
       &END OT
       &OUTER_SCF  T
         EPS_SCF     9.9999999999999995E-07
         MAX_SCF  30
       &END OUTER_SCF
       &PRINT
         &RESTART  SILENT
           ADD_LAST  NUMERIC
           &EACH
             QS_SCF  50
           &END EACH
         &END RESTART
       &END PRINT
     &END SCF
     &QS
       MAP_CONSISTENT  T
       EXTRAPOLATION  ASPC
       EXTRAPOLATION_ORDER  4
     &END QS
     &MGRID
       NGRIDS  5
       CUTOFF     4.6000000000000000E+02
     &END MGRID
     &XC
       DENSITY_CUTOFF     1.0000000000000000E-10
       GRADIENT_CUTOFF     1.0000000000000000E-10
       TAU_CUTOFF     1.0000000000000000E-10
       &XC_GRID
         XC_DERIV  SPLINE2_SMOOTH
       &END XC_GRID
       &XC_FUNCTIONAL  NO_SHORTCUT
         &LIBXC  T
           FUNCTIONAL XC_GGA_X_OPTB88_VDW
         &END LIBXC
         &VWN  T
         &END VWN
       &END XC_FUNCTIONAL
       &VDW_POTENTIAL
         POTENTIAL_TYPE  NON_LOCAL
         &NON_LOCAL
           TYPE  DRSLL
           VERBOSE_OUTPUT  T
           KERNEL_FILE_NAME /users/gtocci/scratch_daint_3000/data_cp2k//vdW_kernel_table.dat
         &END NON_LOCAL
       &END VDW_POTENTIAL
     &END XC
     &REAL_TIME_PROPAGATION
       INITIAL_WFN  SCF_WFN
     &END REAL_TIME_PROPAGATION
     &PRINT
       &MULLIKEN  SILENT
         FILENAME =GRAS.mulliken
       &END MULLIKEN
     &END PRINT
   &END DFT
   &SUBSYS
     &CELL
       A     2.5632000000000001E+01    0.0000000000000000E+00    0.0000000000000000E+00
       B     0.0000000000000000E+00    2.4664400000000022E+01    0.0000000000000000E+00
       C     0.0000000000000000E+00    0.0000000000000000E+00    5.0000000000000028E+01
       MULTIPLE_UNIT_CELL  1 1 1
     &END CELL
     &COORD
C    5.6368882334585120E+00   -2.5794462261064677E+01    2.4853572088342983E+00
C    7.0764355585598722E+00   -2.5713577023722156E+01    2.5203690429436301E+00
C    7.7831780212632333E+00   -2.4487674695461127E+01    2.4717475899542349E+00
C    9.1988328333248468E+00   -2.4544430550079429E+01    2.3869319291257929E+00
C    5.6828797353420475E+00   -2.3297624423471664E+01    2.6265569305136758E+00
C    7.0925333620876021E+00   -2.3234319995838227E+01    2.4553586304960859E+00
C    7.7783983527641105E+00   -2.2013291234529060E+01    2.3579429967752086E+00
C    9.2280553921739745E+00   -2.2086040424243329E+01    2.4052348754547537E+00
C    5.6323900162593690E+00   -2.0770862676106415E+01    2.6658366965772844E+00
C    7.0719184060808926E+00   -2.0813216030065863E+01    2.6040062981975551E+00
C    7.7960669936862192E+00   -1.9565216555603783E+01    2.6560063656043265E+00
C    9.2310122181574208E+00   -1.9591316440154142E+01    2.5586413115696613E+00
C    5.6827229251999274E+00   -1.8370000093411221E+01    2.6115052016677733E+00
C    7.1209214970578998E+00   -1.8348390688101013E+01    2.6617458729170660E+00
C    7.8254980099509304E+00   -1.7133583854050336E+01    2.6652753018829332E+00
C    9.2840457931301312E+00   -1.7163194740684187E+01    2.6537472717304285E+00
C    5.7624792906008606E+00   -1.5888168774513462E+01    2.4556259925569575E+00
C    7.1885346965154309E+00   -1.5878477400724455E+01    2.5164546534542276E+00
C    7.7595763356392995E+00   -2.6947751925909216E+01    2.3568539978412528E+00
C    9.1991192509339488E+00   -2.6993609098925234E+01    2.4022263547356171E+00
C    9.9135311660939003E+00   -2.5789684876436763E+01    2.4849025860346745E+00
C    1.1310791747320396E+01   -2.5779075699602323E+01    2.3746902105932879E+00
C    1.2064705440851638E+01   -2.4515664765066237E+01    2.2810874981176577E+00
C    1.3436306143800131E+01   -2.4514518792610993E+01    2.2316431728863599E+00
C    9.8993837621859981E+00   -2.3292960230166717E+01    2.3120342897832522E+00
C    1.1346446958411102E+01   -2.3299965588191593E+01    2.2942516860112430E+00
C    1.2077955949677751E+01   -2.2077428877316780E+01    2.3443732256915442E+00
C    1.3456682872133410E+01   -2.2112586018867560E+01    2.2246039018145622E+00
C    9.9009357126435695E+00   -2.0801987709919004E+01    2.4668825390452911E+00
C    1.1348457653693957E+01   -2.0807629537909897E+01    2.4154412045415188E+00
C    1.2044908472574988E+01   -1.9564252482793886E+01    2.4392451634987489E+00
C    1.3483713579331521E+01   -1.9582247604941255E+01    2.3272785161839749E+00
C    9.9656716631317206E+00   -1.8369560009109385E+01    2.6951144631916275E+00
C    1.1364517422663670E+01   -1.8365860972258265E+01    2.6245197582529873E+00
C    1.2103816279905915E+01   -1.7146307240525626E+01    2.5328847169213882E+00
C    1.3496541729612526E+01   -1.7147532811395145E+01    2.4521024006758232E+00
C    1.0011205679536513E+01   -1.5870373283944776E+01    2.6320062670578843E+00
C    1.1431087149631329E+01   -1.5860971815230444E+01    2.5288277984747594E+00
C    1.2041531640734213E+01   -2.6974518386544112E+01    2.2858850908695239E+00
C    1.3481523171107176E+01   -2.6995315712800135E+01    2.2604687780773505E+00
C    1.4211121709063018E+01   -2.5717027702349124E+01    2.3196295038023300E+00
C    1.5679096103625600E+01   -2.5760744123571108E+01    2.2641527868533777E+00
C    1.6360495175866511E+01   -2.4514936245634804E+01    2.2889567177883698E+00
C    1.7807603639783625E+01   -2.4467577291163089E+01    2.1554730488448253E+00
C    1.4156228967111113E+01   -2.3346324089408867E+01    2.2566368390064802E+00
C    1.5591319598783365E+01   -2.3281699450082776E+01    2.3210135120993503E+00
C    1.6311883850480640E+01   -2.2045607083966615E+01    2.2701901154841488E+00
C    1.7774946840027862E+01   -2.1950692224490840E+01    2.1820017450733662E+00
C    1.4176097293542561E+01   -2.0816531516046368E+01    2.3319859606567293E+00
C    1.5599023404743528E+01   -2.0798799894684088E+01    2.3349998356817823E+00
C    1.6363610119770332E+01   -1.9578961058185865E+01    2.3945562876944031E+00
C    1.7825768999795287E+01   -1.9544420141817042E+01    2.2481019833524813E+00
C    1.4248313365032454E+01   -1.8379316969007121E+01    2.3850223905127867E+00
C    1.5655552076956640E+01   -1.8367350971869847E+01    2.4860828741734897E+00
C    1.6405395623013568E+01   -1.7111128776492112E+01    2.4483123875761690E+00
C    1.7780297377348575E+01   -1.7130057347003486E+01    2.5223036040320457E+00
C    1.4280350704220144E+01   -1.5889869669191839E+01    2.5020560600645165E+00
C    1.5733425490853202E+01   -1.5861548466405743E+01    2.4221541790493752E+00
C    1.6415498901881239E+01   -2.6955480646071408E+01    2.1712600233641313E+00
C    1.7831907043507471E+01   -2.6912638691573143E+01    1.9483898588409834E+00
C    5.7423502165131719E+00   -1.3393374702887458E+01    2.3643302556602888E+00
C    7.1653041204129782E+00   -1.3442667087679954E+01    2.4400124369860854E+00
C    7.9028342262773430E+00   -1.2181509549402014E+01    2.4978928463203864E+00
C    9.3207888523268103E+00   -1.2198551427472026E+01    2.5174636218686555E+00
C    5.7393293574939541E+00   -1.0979458031830067E+01    2.3675118628296459E+00
C    7.1647500116970422E+00   -1.0979467781719563E+01    2.4212011201257191E+00
C    7.8738059759812646E+00   -9.7551573666821110E+00    2.4673514572468638E+00
C    9.2438472956989219E+00   -9.7357570903294075E+00    2.5048630901234361E+00
C    5.7445389047796542E+00   -8.5071873923669408E+00    2.2149032979916883E+00
C    7.1339099497360747E+00   -8.5153531409730316E+00    2.2289694139808929E+00
C    7.8108706828921850E+00   -7.2662926011687752E+00    2.2682485078371388E+00
C    9.2413260892469609E+00   -7.2585564133826530E+00    2.1870785883174251E+00
C    5.6637230328897044E+00   -6.0550173382506038E+00    2.1655102922060530E+00
C    7.0709254420757759E+00   -6.0640218236841568E+00    2.1932443200340779E+00
C    7.7766944019675286E+00   -4.7536543283148029E+00    2.2351953618380693E+00
C    9.2144492000426297E+00   -4.7916345745816127E+00    2.1535718807238591E+00
C    5.6384489647209257E+00   -3.5313119916425237E+00    2.2704126670408704E+00
C    7.0376452684696700E+00   -3.5101710861108177E+00    2.2613519614866444E+00
C    7.8563753724711436E+00   -1.4638588124750012E+01    2.4634488831545420E+00
C    9.3124946417875538E+00   -1.4664874707483525E+01    2.5866555045626423E+00
C    1.0045529369598860E+01   -1.3461950153481858E+01    2.5041369148808257E+00
C    1.1446350493577134E+01   -1.3403622303399718E+01    2.5916597914924933E+00
C    1.2124923854784068E+01   -1.2214102001584104E+01    2.5375708288864223E+00
C    1.3573558495962143E+01   -1.2203427497557955E+01    2.4998948795057014E+00
C    9.9822718157447579E+00   -1.0991506089134635E+01    2.4962401695148526E+00
C    1.1435881004979931E+01   -1.1003619750155803E+01    2.4401959366891410E+00
C    1.2125957843441292E+01   -9.7598759055881406E+00    2.3609997802427669E+00
C    1.3575044744702112E+01   -9.7025991192369414E+00    2.3716473848120789E+00
C    9.9523147381545822E+00   -8.5455627696066614E+00    2.3190714442634799E+00
C    1.1419782341349979E+01   -8.5310548088817608E+00    2.2566760696902524E+00
C    1.2125305850366322E+01   -7.2677359028471313E+00    2.1191295075257197E+00
C    1.3589891573669465E+01   -7.2570885363518167E+00    2.1462504842731889E+00
C    9.9208570267271465E+00   -5.9901377559635822E+00    2.1573868291865375E+00
C    1.1356566573921580E+01   -6.0431339975945493E+00    2.0919552012827944E+00
C    1.2097412117454846E+01   -4.8123612731350391E+00    2.1815188460968136E+00
C    1.3491648373943898E+01   -4.8208570005697160E+00    2.0713037084649786E+00
C    9.9091453616172789E+00   -3.5612563364484182E+00    2.2457612149564450E+00
C    1.1355599806298502E+01   -3.5669940174298209E+00    2.2720134669055834E+00
C    1.2171185536997580E+01   -1.4631223688038997E+01    2.4903121583923489E+00
C    1.3581138403364259E+01   -1.4617689112065330E+01    2.3889062050757652E+00
C    1.4276375998741853E+01   -1.3379331287751542E+01    2.3633450255636053E+00
C    1.5711359005141242E+01   -1.3405518894989701E+01    2.4552808329775799E+00
C    1.6404011399215310E+01   -1.2144298619318930E+01    2.4552100065314355E+00
C    1.7835285057893074E+01   -1.2131758974723679E+01    2.4715112029182351E+00
C    1.4253975208244803E+01   -1.0948213089863035E+01    2.3751238500749197E+00
C    1.5689485737201986E+01   -1.0908632952907114E+01    2.3678462075570845E+00
C    1.6404163702230264E+01   -9.6543994841119982E+00    2.3204871778385154E+00
C    1.7865056561958969E+01   -9.6817212178560688E+00    2.3301096179867344E+00
C    1.4274928877302367E+01   -8.4653221935588636E+00    2.3113155612864769E+00
C    1.5697773070159325E+01   -8.4324688743844227E+00    2.2648278357047165E+00
C    1.6370768845381853E+01   -7.2353774507426394E+00    2.0179068453700135E+00
C    1.7819226455486238E+01   -7.1951495065171445E+00    2.0028372593629111E+00
C    1.4270284772156387E+01   -6.0422926883645953E+00    1.9521735798780939E+00
C    1.5679915077666339E+01   -6.0164446690822162E+00    1.8464094912738340E+00
C    1.6403705040012600E+01   -4.7780340892719373E+00    1.9091397530837599E+00
C    1.7841090339794764E+01   -4.7306697971330900E+00    1.9764065971407581E+00
C    1.4238246863142065E+01   -3.5502160009735193E+00    2.0708925589524263E+00
C    1.5705241693717582E+01   -3.5562615514963349E+00    2.0708600912575079E+00
C    1.6403822272743401E+01   -1.4609363668752010E+01    2.4996710746619240E+00
C    1.7798121921564615E+01   -1.4647251337122920E+01    2.4158249458946810E+00
C    1.8455683284661362E+01   -2.5691018904482629E+01    2.0589362938419162E+00
C    1.9901394175486377E+01   -2.5715571904605632E+01    2.0505039373445291E+00
C    2.0630364737311247E+01   -2.4531237727347047E+01    2.0437188502504431E+00
C    2.2051095368058672E+01   -2.4496724436270583E+01    2.1664616065356155E+00
C    1.8520957472265291E+01   -2.3223820588422083E+01    2.1045261941016369E+00
C    1.9921875388658865E+01   -2.3281050606268504E+01    2.0265753656549736E+00
C    2.0647272246218805E+01   -2.2036573051363160E+01    2.1821093709777957E+00
C    2.2042994593830560E+01   -2.2065068307429378E+01    2.3420564178237528E+00
C    1.8546605915554572E+01   -2.0767506927234876E+01    2.0945939324169607E+00
C    1.9946100564489495E+01   -2.0839945642351779E+01    2.2062766689493127E+00
C    2.0625616043842491E+01   -1.9551195721372455E+01    2.4127758548112839E+00
C    2.2069604436066946E+01   -1.9551682340200571E+01    2.5009840499711009E+00
C    1.8496582156761576E+01   -1.8331836418010958E+01    2.4058154707783137E+00
C    1.9940694543090974E+01   -1.8333614435518619E+01    2.4577922931833753E+00
C    2.0678240514592588E+01   -1.7103297377840967E+01    2.5694796555367896E+00
C    2.2055161429994229E+01   -1.7112654410942934E+01    2.6778255694200892E+00
C    1.8519947226930128E+01   -1.5871193812355539E+01    2.5691347629186052E+00
C    1.9933404698131074E+01   -1.5878783020433046E+01    2.6164904765321344E+00
C    2.0615484252347922E+01   -2.6957588600691398E+01    2.1100754821112018E+00
C    2.2021617372457353E+01   -2.6954274544871275E+01    2.1707058212298502E+00
C    2.2788895956885572E+01   -2.5751824659661608E+01    2.2776993349949244E+00
C    2.4231141187130056E+01   -2.5779362276110671E+01    2.3018701568142395E+00
C    2.4886772874822597E+01   -2.4529309888543207E+01    2.3417505831152416E+00
C    2.6322388374952386E+01   -2.4491684759482418E+01    2.4693670081371568E+00
C    2.2756091177670164E+01   -2.3314041036401797E+01    2.3316995788138875E+00
C    2.4189194851442334E+01   -2.3298750948354574E+01    2.4864596112125641E+00
C    2.4897027237614711E+01   -2.2014937191430988E+01    2.5608174317705932E+00
C    2.6318862371868782E+01   -2.2044577351866607E+01    2.6574962885609854E+00
C    2.2767809454000052E+01   -2.0806781639294424E+01    2.4557059566370683E+00
C    2.4173134061333705E+01   -2.0780622445701940E+01    2.5261706467701699E+00
C    2.4844937282568445E+01   -1.9575218314032664E+01    2.5438726099723068E+00
C    2.6293096960767677E+01   -1.9518528492443664E+01    2.6453316227111778E+00
C    2.2768962283737558E+01   -1.8327347721976558E+01    2.7160085259827320E+00
C    2.4157920998187709E+01   -1.8349939650858648E+01    2.6247345423887269E+00
C    2.4888579529416997E+01   -1.7139196719602687E+01    2.6591328199907069E+00
C    2.6322353102521923E+01   -1.7110747409582885E+01    2.5531277589506800E+00
C    2.2726782419090842E+01   -1.5880680997497745E+01    2.6405018471155395E+00
C    2.4185612511904779E+01   -1.5907748147711818E+01    2.6038946772174332E+00
C    2.4920081079977741E+01   -2.7001754460576560E+01    2.2096843753290614E+00
C    2.6331111156437959E+01   -2.6980645414529608E+01    2.3461548055581694E+00
C    2.7027456244293266E+01   -2.5750322379092182E+01    2.4301941664259918E+00
C    2.8473718202868799E+01   -2.5764588509590386E+01    2.5576512729423091E+00
C    2.9136727760018637E+01   -2.4516413113383038E+01    2.6194077543707919E+00
C    3.0547123645449940E+01   -2.4529110586898643E+01    2.5541816580267169E+00
C    2.7021550309571946E+01   -2.3303742482202026E+01    2.6920735990504974E+00
C    2.8415063130371436E+01   -2.3308563051735099E+01    2.7465701807428085E+00
C    2.9189505169008903E+01   -2.2057669718017909E+01    2.7965998180432674E+00
C    3.0570243376119294E+01   -2.2030373500602821E+01    2.6975791047514210E+00
C    2.7024916566054095E+01   -2.0788121863912973E+01    2.7646986572877088E+00
C    2.8447447222186923E+01   -2.0859294888682118E+01    2.7748378607311142E+00
C    2.9148551093096128E+01   -1.9636261554787946E+01    2.7640485690123642E+00
C    3.0561670653883926E+01   -1.9572018265851924E+01    2.7412342227734672E+00
C    2.7052157071206562E+01   -1.8327378043353804E+01    2.6661719046123018E+00
C    2.8493493803118252E+01   -1.8371229066547649E+01    2.6468374425383554E+00
C    2.9214193630003226E+01   -1.7077753677298166E+01    2.6010369068355397E+00
C    3.0654939332564837E+01   -1.7122250061347874E+01    2.5307658553310333E+00
C    2.7057288830218109E+01   -1.5920975427330646E+01    2.5236212511766358E+00
C    2.8511281304467101E+01   -1.5903317213190078E+01    2.5230762340023722E+00
C    2.9147598902464676E+01   -2.6985396946990406E+01    2.3244334153154491E+00
C    3.0562780446098547E+01   -2.7010415744782470E+01    2.3649890438010579E+00
C    1.8504311665836237E+01   -1.3380369704208119E+01    2.3757717106814029E+00
C    1.9904818595786065E+01   -1.3412489707659381E+01    2.4483382445053263E+00
C    2.0611797925637170E+01   -1.2157005120501575E+01    2.4009886023402660E+00
C    2.2071482606912255E+01   -1.2169834505071355E+01    2.3416720692493977E+00
C    1.8560020884747345E+01   -1.0883971720952140E+01    2.3758209417650167E+00
C    1.9933400096123087E+01   -1.0885011258895615E+01    2.3122122862303538E+00
C    2.0640927402244024E+01   -9.6525193097238198E+00    2.2777105331459451E+00
C    2.2069215767948748E+01   -9.6753762358163566E+00    2.1471271529409561E+00
C    1.8536568284157823E+01   -8.4065741810646220E+00    2.1361544564181099E+00
C    1.9938843423491033E+01   -8.4119879441873273E+00    2.0615467230657685E+00
C    2.0665562986324989E+01   -7.1550607249624729E+00    2.0802098358209795E+00
C    2.2097029382550510E+01   -7.1529418151446720E+00    2.0762336289207091E+00
C    1.8531243719646188E+01   -5.9423871476969063E+00    1.9000086937005289E+00
C    1.9955121834910280E+01   -5.9337515272214176E+00    2.0612604683391549E+00
C    2.0667053265247151E+01   -4.7430881343017077E+00    2.0939452206510150E+00
C    2.2066959108177997E+01   -4.7432602531426111E+00    2.0933507946623271E+00
C    1.8555289909952933E+01   -3.4666973692915266E+00    1.9353244021582547E+00
C    1.9956274686794639E+01   -3.4721380202271299E+00    2.0052670823219541E+00
C    2.0642542386743926E+01   -1.4631371146962410E+01    2.5671320573625782E+00
C    2.2062886221996518E+01   -1.4645705689303359E+01    2.6164574765222279E+00
C    2.2809150417487942E+01   -1.3427666140590464E+01    2.4630331365482734E+00
C    2.4206967980013587E+01   -1.3389387715703963E+01    2.4814405357148717E+00
C    2.4917520642363076E+01   -1.2178384583263520E+01    2.4028546518768752E+00
C    2.6376873512508965E+01   -1.2199120415231921E+01    2.4327225484798167E+00
C    2.2805024667873575E+01   -1.0906219020152250E+01    2.2095167943609084E+00
C    2.4224173958589553E+01   -1.0931475708309272E+01    2.2288992497860605E+00
C    2.4952385329821503E+01   -9.6962481946977057E+00    2.1642450441075076E+00
C    2.6368414893398565E+01   -9.6698084980862085E+00    2.3088147753198527E+00
C    2.2741979988081393E+01   -8.4282358047932107E+00    2.0901137805131151E+00
C    2.4182457276097693E+01   -8.5018829926529627E+00    2.0412472150994350E+00
C    2.4902673036989370E+01   -7.2278860264631462E+00    2.0250190452111889E+00
C    2.6345566808814695E+01   -7.2710165225723751E+00    2.0828658072644033E+00
C    2.2797278497027133E+01   -5.9791706975736938E+00    1.9528554699539653E+00
C    2.4188649810186870E+01   -5.9797152112260958E+00    1.8824166256538584E+00
C    2.4919543409695169E+01   -4.7697872666228029E+00    1.8486027969711933E+00
C    2.6312302775436475E+01   -4.8042913923364248E+00    1.9961005921199295E+00
C    2.2763840169883366E+01   -3.5137452902293167E+00    2.0515982145444993E+00
C    2.4194153575279486E+01   -3.5495611924998154E+00    2.0736235086376831E+00
C    2.4937053934576582E+01   -1.4647006773888927E+01    2.5003121602627227E+00
C    2.6364311438939747E+01   -1.4663813079685257E+01    2.4955210094739741E+00
C    2.7076589429535243E+01   -1.3437785420740502E+01    2.4842469243311713E+00
C    2.8511871947723172E+01   -1.3478074207521844E+01    2.4390914407793165E+00
C    2.9231836164722566E+01   -1.2206223668471043E+01    2.3847475150002331E+00
C    3.0640061441189083E+01   -1.2164477507217651E+01    2.3454879557651109E+00
C    2.7034719430265199E+01   -1.0972473976329255E+01    2.3950434767510833E+00
C    2.8458905637975974E+01   -1.0992906101571373E+01    2.4572662775568146E+00
C    2.9209509456615120E+01   -9.7587689953102235E+00    2.2690570877307326E+00
C    3.0631460151677107E+01   -9.7712823758207019E+00    2.2579721908799120E+00
C    2.7097349350450067E+01   -8.4718940524488975E+00    2.1391866947283948E+00
C    2.8493772795641267E+01   -8.5001110863769860E+00    2.1562376072299418E+00
C    2.9174815467188612E+01   -7.2684231578454481E+00    2.2050240549774522E+00
C    3.0574022262972434E+01   -7.2806944433961975E+00    2.1363289093283209E+00
C    2.7074665169422445E+01   -6.0064383226100659E+00    2.0837242567526100E+00
C    2.8461002240788098E+01   -6.0160641010989995E+00    2.1244356022089192E+00
C    2.9144039150930197E+01   -4.7608957831142957E+00    2.2110509688101381E+00
C    3.0606485903663998E+01   -4.7579227490587446E+00    2.1855046570525514E+00
C    2.7014710744505170E+01   -3.5748456600122718E+00    2.1746082585208875E+00
C    2.8429789663574368E+01   -3.5634715137649353E+00    2.2895079155770883E+00
C    2.9267121129805641E+01   -1.4650104727545378E+01    2.4061188169528265E+00
C    3.0689087212675247E+01   -1.4642400670037727E+01    2.4963601052538369E+00
O    2.5990329459469348E+02    2.5892032340373120E+01    9.1485722415351098E+00
H    2.5887291921621579E+02    2.5822204748194174E+01    9.2067796631905345E+00
H    2.6014701647098917E+02    2.6089423827953127E+01    8.2118311879681407E+00
O    2.8709357585678248E+02   -6.9899260095848490E+01    5.8487675350661705E+00
H    2.8620878700425425E+02   -6.9570849294060238E+01    5.6240914220166198E+00
H    2.8740026851949966E+02   -6.9255763034993791E+01    6.5520279055693695E+00
O    2.4104937534335409E+02    2.2742604550943334E+01    1.2486091479788241E+01
H    2.4023059760204146E+02    2.2700219809055611E+01    1.1926819127957758E+01
H    2.4105146111923108E+02    2.1881832558594699E+01    1.2998876575374270E+01
O    3.2249740326020316E+02   -4.2879985461510408E+01    1.0699985535001858E+01
H    3.2183336959974849E+02   -4.2187082185244869E+01    1.0921664359790627E+01
H    3.2211472295980110E+02   -4.3520788792880268E+01    1.0054308201644922E+01
O    2.3465718850228325E+02    1.7808964743684907E+01    1.6622224389138008E+01
H    2.3431232576490618E+02    1.7313903936750922E+01    1.7372304173186400E+01
H    2.3391568235046884E+02    1.8142171434216316E+01    1.6084896048054059E+01
O    2.3414141936992417E+02   -1.0062637646128910E+02    1.5136786814930389E+01
H    2.3455331909225899E+02   -1.0152140748037642E+02    1.5068163866074780E+01
H    2.3439483843907547E+02   -1.0015564519770231E+02    1.4268131474036288E+01
O    2.5094513510679954E+02    1.5510705829793800E+01    1.0269319645646622E+01
H    2.5142617585063064E+02    1.5400927196506752E+01    9.4311816506490729E+00
H    2.5005474744496809E+02    1.5098983438445819E+01    1.0278651140273210E+01
O    2.8485130651606744E+02   -6.6774736526114339E+01    1.5121516203761480E+01
H    2.8549202474576464E+02   -6.7256195632349360E+01    1.4504159934106541E+01
H    2.8413400896564872E+02   -6.7418354400918602E+01    1.5290058950759839E+01
O    2.1233929514100672E+02    3.2674686975580322E+01    5.9399512505933556E+00
H    2.1276712713279633E+02    3.1844569678976896E+01    5.5677600969227887E+00
H    2.1157844740146638E+02    3.2776076027088742E+01    5.3876232691337789E+00
O    3.6031542852207042E+02    5.1344819755884551E+01    5.7853370399217621E+00
H    3.6003208040902427E+02    5.1872389167308683E+01    6.5471868433741323E+00
H    3.5965671058573616E+02    5.0583987975293994E+01    5.8179877170523664E+00
O    2.1732398681406076E+02    1.6349932048658975E+01    5.5852899110847325E+00
H    2.1654633721051414E+02    1.6294879112359819E+01    6.3108760390015002E+00
H    2.1698853614164688E+02    1.6053494367920088E+01    4.7315458479130807E+00
O    1.6011226970148959E+02   -2.7337545260277107E+01    1.6442644825660853E+01
H    1.5979043162367307E+02   -2.6459854745410642E+01    1.6819606657653100E+01
H    1.5955780468024614E+02   -2.7997791996851259E+01    1.7003657626687549E+01
O    1.7556985927328475E+02   -1.1961256607946206E+02    1.6124004109074718E+01
H    1.7516968941019880E+02   -1.1991412389982085E+02    1.5291066024145703E+01
H    1.7492221602770545E+02   -1.1893158093726571E+02    1.6548995532035235E+01
O    2.3549781573094893E+02   -1.3657025300608885E+02    2.0636854170070940E+01
H    2.3605261835726125E+02   -1.3606122584132788E+02    1.9997182997934452E+01
H    2.3554265771514778E+02   -1.3592505618752799E+02    2.1334234501004200E+01
O    1.4314344816084864E+02    1.3376319751256071E+02    1.7794660284268261E+01
H    1.4250417099823269E+02    1.3350308642962497E+02    1.8437036848196577E+01
H    1.4393186851162636E+02    1.3311265497851409E+02    1.7714043379209745E+01
O    3.4519326390298329E+02    5.2059740196213149E+01    1.8450879183091029E+01
H    3.4451286261775215E+02    5.1356919538294761E+01    1.8555713086076295E+01
H    3.4461352031414356E+02    5.2856914003207706E+01    1.8470450774559172E+01
O    2.4219735471355588E+02    8.8944644963067475E+01    1.0359876417521043E+01
H    2.4126416364097923E+02    8.9070624522162774E+01    1.0368924959852727E+01
H    2.4229132582338070E+02    8.8558970601775954E+01    9.3929538699225805E+00
O    2.7247830232998319E+02   -4.6609495568814012E+01    1.1505919555643112E+01
H    2.7263053532245965E+02   -4.7409484501580664E+01    1.2104104317880360E+01
H    2.7305112107284231E+02   -4.5858525420841325E+01    1.1829226825731290E+01
O    2.0243680811367813E+02   -8.5028229694821196E+00    1.3692391336890507E+01
H    2.0201023121320677E+02   -9.4314394471765830E+00    1.3611885655482613E+01