 # Version information for this restart file 
 # current date 2020-04-18 23:54:58.504
 # current working dir /scratch/snx3000/gtocci/gtocci/MEMBRANES/AIMD_US_IONS_GRA/us_aimd_new/us_21
 # Program compiled at                              Fri Nov 22 15:19:42 CET 2019
 # Program compiled on                                                  daint102
 # Program compiled for                                   CRAY_XC50-gfortran_gpu
 # Source code revision number                                       git:a698b45
 &GLOBAL
   PRINT_LEVEL  LOW
   PROJECT_NAME GRAS
   RUN_TYPE  MD
   WALLTIME 86400
 &END GLOBAL
 &MOTION
   &MD
     ENSEMBLE  NVT
     STEPS  2000
     TIMESTEP     9.9999999999999989E-01
     STEP_START_VAL  74434
     TIME_START_VAL     7.4433999999938926E+04
     ECONS_START_VAL    -8.3019668997326899E+03
     TEMPERATURE     3.0000000000000000E+02
     TEMP_KIND  T
     &BAROSTAT
       PRESSURE     1.0000000000000000E+00
       TIMECON     9.9999999999999986E+01
       VIRIAL  Z
     &END BAROSTAT
     &THERMOSTAT
       TYPE  NOSE
       REGION  GLOBAL
       &NOSE
         LENGTH  4
         TIMECON     9.9999999999999986E+01
         MTS  2
         &COORD
              -3.3297356226140225E-02   -6.5149901726114869E+00   -1.9545116494066267E+01    1.6732986417280710E+01
         &END COORD
         &VELOCITY
              -9.7080842162745558E-07    1.3200094715599888E-04    2.5535274889702130E-04    5.1531142637699172E-04
         &END VELOCITY
         &MASS
               7.0145132684705392E+07    1.6237299232570693E+04    1.6237299232570693E+04    1.6237299232570693E+04
         &END MASS
         &FORCE
              -1.1569078524541516E-09   -5.4438547806813010E-08   -4.1085763800024255E-08    6.6950125191601479E-09
         &END FORCE
       &END NOSE
     &END THERMOSTAT
     &AVERAGES  T
       &RESTART_AVERAGES
         ITIMES_START  1
         AVECPU     3.1120828280538372E+01
         AVEHUGONIOT     0.0000000000000000E+00
         AVETEMP_BARO     0.0000000000000000E+00
         AVEPOT    -8.3067383104058081E+03
         AVEKIN     2.0528543328431397E+00
         AVETEMP     3.0009864581749184E+02
         AVEKIN_QM     0.0000000000000000E+00
         AVETEMP_QM     0.0000000000000000E+00
         AVEVOL     2.1331414786626332E+05
         AVECELL_A     4.8437460238121901E+01
         AVECELL_B     4.6608961231948342E+01
         AVECELL_C     9.4486306644281314E+01
         AVEALPHA     9.0000000000000028E+01
         AVEBETA     9.0000000000000028E+01
         AVEGAMMA     9.0000000000000028E+01
         AVE_ECONS    -5.6894582492852146E+02
         AVE_PRESS     0.0000000000000000E+00
         AVE_PXX     0.0000000000000000E+00
       &END RESTART_AVERAGES
     &END AVERAGES
     &PRINT
       &TEMP_KIND  SILENT
       &END TEMP_KIND
     &END PRINT
   &END MD
   &FREE_ENERGY
     &METADYN
       MIN_DISP    -1.0000000000000000E+00
       OLD_HILL_NUMBER  0
       OLD_HILL_STEP  0
       DO_HILLS  F
       STEP_START_VAL  74434
       NHILLS_START_VAL  0
       &METAVAR
         SCALE     1.0000000000000000E+00
         COLVAR  1
       &END METAVAR
       &PRINT
         &COLVAR  SILENT
           COMMON_ITERATION_LEVELS  3
           &EACH
             MD  1
           &END EACH
         &END COLVAR
       &END PRINT
     &END METADYN
   &END FREE_ENERGY
   &CONSTRAINT
     &COLLECTIVE
       COLVAR  1
       INTERMOLECULAR  T
       &RESTRAINT
         K     4.4625385281452931E-04
       &END RESTRAINT
     &END COLLECTIVE
     &COLVAR_RESTART
           1.9842124395299255E+01
     &END COLVAR_RESTART
   &END CONSTRAINT
   &PRINT
     &TRAJECTORY  SILENT
       &EACH
         MD  1
       &END EACH
     &END TRAJECTORY
     &VELOCITIES  SILENT
       &EACH
         MD  1
       &END EACH
     &END VELOCITIES
     &FORCES  SILENT
       UNIT eV*angstrom^-1
       &EACH
         MD  1
       &END EACH
     &END FORCES
     &RESTART  SILENT
       &EACH
         MD  1
       &END EACH
     &END RESTART
     &RESTART_HISTORY  SILENT
       &EACH
         MD  100
       &END EACH
     &END RESTART_HISTORY
   &END PRINT
 &END MOTION
 &FORCE_EVAL
   METHOD  QS
   &DFT
     BASIS_SET_FILE_NAME /users/gtocci/scratch_daint_3000/data_cp2k//BASIS_MOLOPT
     POTENTIAL_FILE_NAME /users/gtocci/scratch_daint_3000/data_cp2k//GTH_POTENTIALS
     WFN_RESTART_FILE_NAME ./GRAS-RESTART.wfn
     CHARGE  -1
     &SCF
       MAX_SCF  10
       EPS_SCF     9.9999999999999995E-07
       SCF_GUESS  RESTART
       &OT  T
         MINIMIZER  DIIS
         PRECONDITIONER  FULL_KINETIC
       &END OT
       &OUTER_SCF  T
         EPS_SCF     9.9999999999999995E-07
         MAX_SCF  30
       &END OUTER_SCF
       &PRINT
         &RESTART  SILENT
           ADD_LAST  NUMERIC
           &EACH
             QS_SCF  50
           &END EACH
         &END RESTART
       &END PRINT
     &END SCF
     &QS
       MAP_CONSISTENT  T
       EXTRAPOLATION  ASPC
       EXTRAPOLATION_ORDER  4
     &END QS
     &MGRID
       NGRIDS  5
       CUTOFF     4.6000000000000000E+02
     &END MGRID
     &XC
       DENSITY_CUTOFF     1.0000000000000000E-10
       GRADIENT_CUTOFF     1.0000000000000000E-10
       TAU_CUTOFF     1.0000000000000000E-10
       &XC_GRID
         XC_DERIV  SPLINE2_SMOOTH
       &END XC_GRID
       &XC_FUNCTIONAL  NO_SHORTCUT
         &LIBXC  T
           FUNCTIONAL XC_GGA_X_OPTB88_VDW
         &END LIBXC
         &VWN  T
         &END VWN
       &END XC_FUNCTIONAL
       &VDW_POTENTIAL
         POTENTIAL_TYPE  NON_LOCAL
         &NON_LOCAL
           TYPE  DRSLL
           VERBOSE_OUTPUT  T
           KERNEL_FILE_NAME /users/gtocci/scratch_daint_3000/data_cp2k//vdW_kernel_table.dat
         &END NON_LOCAL
       &END VDW_POTENTIAL
     &END XC
     &REAL_TIME_PROPAGATION
       INITIAL_WFN  SCF_WFN
     &END REAL_TIME_PROPAGATION
     &PRINT
       &MULLIKEN  SILENT
         FILENAME =GRAS.mulliken
       &END MULLIKEN
     &END PRINT
   &END DFT
   &SUBSYS
     &CELL
       A     2.5632000000000001E+01    0.0000000000000000E+00    0.0000000000000000E+00
       B     0.0000000000000000E+00    2.4664400000000022E+01    0.0000000000000000E+00
       C     0.0000000000000000E+00    0.0000000000000000E+00    5.0000000000000028E+01
       MULTIPLE_UNIT_CELL  1 1 1
     &END CELL
     &COORD
C    1.0218853692488178E+01   -1.2523099911916122E-02    9.5310836286575074E-01
C    1.1692137648331856E+01   -2.4467035977514272E-02    1.1047426127799260E+00
C    1.2407298121309921E+01    1.1624805008779855E+00    1.3170514390854571E+00
C    1.3809522177170866E+01    1.1962238691559681E+00    1.3977793965043890E+00
C    1.0275015196345802E+01    2.4577932576668688E+00    1.1586931644274974E+00
C    1.1702675207100997E+01    2.4158320104118403E+00    1.3593260169385009E+00
C    1.2397654717520078E+01    3.6549448373905156E+00    1.3391800229560593E+00
C    1.3874679192643448E+01    3.6677020095908639E+00    1.3292322827590424E+00
C    1.0219228124683941E+01    4.8912217589625708E+00    1.3202596608648582E+00
C    1.1671123715400258E+01    4.8806461016165352E+00    1.3580763212439344E+00
C    1.2462684396793835E+01    6.1007733877910848E+00    1.4436249514489063E+00
C    1.3914018864221733E+01    6.0968981251931442E+00    1.5027923947842288E+00
C    1.0250245967848320E+01    7.3687248806816221E+00    1.3058291057230011E+00
C    1.1705038036020039E+01    7.3466973667804112E+00    1.3803446147657308E+00
C    1.2346804401204402E+01    8.5521281632013917E+00    1.4506257905674651E+00
C    1.3811713431104831E+01    8.5513397241660982E+00    1.5345787567939719E+00
C    1.0269123649196343E+01    9.8596570094516824E+00    1.2740415062199686E+00
C    1.1691771828976130E+01    9.8405139257822327E+00    1.4021492905828650E+00
C    1.2399029229646514E+01   -1.3112296088683060E+00    1.0628487573940739E+00
C    1.3807495719906017E+01   -1.2697079561794602E+00    1.2366716174868475E+00
C    1.4514202451762575E+01   -6.9431675717136834E-02    1.3073464829973773E+00
C    1.5969150340471741E+01   -8.7438579250209661E-02    1.3518610840137457E+00
C    1.6667914106898358E+01    1.1602494651927902E+00    1.4537346643073499E+00
C    1.8050643903877514E+01    1.1328023867146257E+00    1.3787476962588381E+00
C    1.4540021783340185E+01    2.3935094606741982E+00    1.3965611627131027E+00
C    1.5959801905911137E+01    2.4379003428478025E+00    1.4586471282177758E+00
C    1.6731514426892033E+01    3.6561040883395797E+00    1.3401039307348994E+00
C    1.8122368808775143E+01    3.6406887406864588E+00    1.4510671327026241E+00
C    1.4606258274181323E+01    4.8610409295476993E+00    1.3251724295820058E+00
C    1.6035683226835964E+01    4.9019119971272307E+00    1.3165610197705866E+00
C    1.6752126818522441E+01    6.1004582613603180E+00    1.3690099229856272E+00
C    1.8156491769197181E+01    6.1214883850119177E+00    1.2347374419777710E+00
C    1.4587505729257490E+01    7.3303266166714245E+00    1.6011072743791490E+00
C    1.6040400837051870E+01    7.3653134041850059E+00    1.4798186280246626E+00
C    1.6704213194468768E+01    8.6096259615464454E+00    1.3384568616970172E+00
C    1.8158220955513045E+01    8.6095114106806729E+00    1.3085366276150148E+00
C    1.4512508761934679E+01    9.8053968787931485E+00    1.4874509243163156E+00
C    1.5963219651150377E+01    9.8379229241512203E+00    1.3951918115402491E+00
C    1.6703824006351198E+01   -1.3084461970245607E+00    1.2797961384131533E+00
C    1.8088648151099036E+01   -1.3241915062550684E+00    1.1437170740594935E+00
C    1.8774939448422653E+01   -9.4561917067484208E-02    1.2924004393444719E+00
C    2.0174185734664899E+01   -5.0675577292868548E-02    1.3301432997765137E+00
C    2.0925895406402024E+01    1.1359250153000022E+00    1.4448846200480083E+00
C    2.2337810239426396E+01    1.1177140307821740E+00    1.3673117997803137E+00
C    1.8770964865305302E+01    2.3867892379179705E+00    1.5266104612979656E+00
C    2.0257184305669288E+01    2.3872475653829475E+00    1.4663250646063513E+00
C    2.0980383054066451E+01    3.5746431831636074E+00    1.3394991076677183E+00
C    2.2383399125399567E+01    3.6160336910176389E+00    1.2649890652001918E+00
C    1.8836250732202704E+01    4.8309001702152869E+00    1.3438057226504316E+00
C    2.0257357922546163E+01    4.8250018116406137E+00    1.3290236319608437E+00
C    2.0933672531512695E+01    6.0738486039274884E+00    1.3038759535990414E+00
C    2.2315517962149968E+01    6.1085142054654726E+00    1.1803367631860320E+00
C    1.8845944713587766E+01    7.3549283669703582E+00    1.2641031587640037E+00
C    2.0252639153918047E+01    7.3405509687811215E+00    1.3117338850236060E+00
C    2.0918659826822314E+01    8.5993917168371752E+00    1.2684526079020391E+00
C    2.2369234819637899E+01    8.5950478364640439E+00    1.2730663043093955E+00
C    1.8885705030348394E+01    9.8534132647312589E+00    1.3049524579942784E+00
C    2.0251040084730224E+01    9.8545796714499190E+00    1.2398649686343417E+00
C    2.0907998532763067E+01   -1.2826237312703561E+00    1.3388080194971479E+00
C    2.2336885182940662E+01   -1.2837977495516659E+00    1.3811960269926695E+00
C    1.0241727489293815E+01    1.2318104490792804E+01    1.4348774093465393E+00
C    1.1690309609608805E+01    1.2259082436126091E+01    1.4185708484534505E+00
C    1.2412839155541018E+01    1.3526613512206342E+01    1.3901255233918739E+00
C    1.3837175974323086E+01    1.3469086411536869E+01    1.3207931708635428E+00
C    1.0278164640706811E+01    1.4758331126487976E+01    1.3190229638808613E+00
C    1.1716195856911416E+01    1.4790319518984457E+01    1.2985430419950537E+00
C    1.2465544682671657E+01    1.5958896003631734E+01    1.1599845807650306E+00
C    1.3920287836521027E+01    1.5998879529940961E+01    1.1632984682503797E+00
C    1.0364744886761970E+01    1.7253061859780278E+01    1.0226498715411005E+00
C    1.1797021270084620E+01    1.7218720383162342E+01    1.1375994847973829E+00
C    1.2459766901204210E+01    1.8427918678942323E+01    9.4470238225890624E-01
C    1.3876777970148254E+01    1.8494032000618855E+01    1.0292792471321046E+00
C    1.0314415552273642E+01    1.9757964403982474E+01    8.5246616242878515E-01
C    1.1744632322101998E+01    1.9696330784994100E+01    8.3845918421819876E-01
C    1.2442694718646340E+01    2.0919970587437462E+01    8.7870733718645255E-01
C    1.3837713674886515E+01    2.0901439734873939E+01    1.0704343570901471E+00
C    1.0238748483640796E+01    2.2169344009903597E+01    7.5262655637279263E-01
C    1.1709913794991650E+01    2.2162859193848568E+01    8.9867986342633299E-01
C    1.2430314864821314E+01    1.1004225283662231E+01    1.4145950396894207E+00
C    1.3827984162495561E+01    1.1007130016383949E+01    1.3688916999540173E+00
C    1.4539616596686336E+01    1.2241778596134839E+01    1.1957189420522556E+00
C    1.5987135467187684E+01    1.2271673836340184E+01    1.2245367696361653E+00
C    1.6710564832836631E+01    1.3480828565691827E+01    1.2143727996585967E+00
C    1.8144755993635776E+01    1.3535739788115535E+01    1.1669076618708398E+00
C    1.4597148016338666E+01    1.4699417401926921E+01    1.2405536490658606E+00
C    1.6018958209792647E+01    1.4659934669217300E+01    1.2757581282805261E+00
C    1.6694020415171067E+01    1.5939759776833970E+01    1.1762558469379993E+00
C    1.8117111755028823E+01    1.5975815402209935E+01    1.1053957583946379E+00
C    1.4619081629455202E+01    1.7244273411458906E+01    1.1680085504833053E+00
C    1.6022588603121513E+01    1.7221971004040832E+01    1.1757090969269826E+00
C    1.6712477973250749E+01    1.8426126671812860E+01    1.1189342615649711E+00
C    1.8113657113736522E+01    1.8438521449132367E+01    1.2262551253703107E+00
C    1.4533771785213700E+01    1.9675162658382632E+01    1.1153051336386210E+00
C    1.6000347151081431E+01    1.9643817331872473E+01    1.0276939302107029E+00
C    1.6649229722483604E+01    2.0883092204716778E+01    1.0723750537023837E+00
C    1.8091558169532462E+01    2.0932482751482308E+01    1.1443171998582462E+00
C    1.4560765663277815E+01    2.2126204917441939E+01    1.2099063377235111E+00
C    1.5977382311578554E+01    2.2127553235286641E+01    1.2331598266950450E+00
C    1.6700565845972559E+01    1.1073770070642430E+01    1.1723047005956355E+00
C    1.8115838985901362E+01    1.1051140401783675E+01    1.2247942377721210E+00
C    1.8821322919483347E+01    1.2280380552536542E+01    1.1045216731341936E+00
C    2.0228055359433522E+01    1.2265328253128404E+01    1.0951816374490400E+00
C    2.0962864289001050E+01    1.3519649074592621E+01    1.1597873287011060E+00
C    2.2402795969135894E+01    1.3524193043316549E+01    1.1570064908425060E+00
C    1.8881535153437198E+01    1.4766813360684097E+01    1.1292244909065876E+00
C    2.0275599355490890E+01    1.4770219026738708E+01    1.0834186959490673E+00
C    2.0975584767746021E+01    1.5980637896585337E+01    1.0707745932025767E+00
C    2.2341253622132697E+01    1.5976486012602283E+01    1.2256700736250463E+00
C    1.8784795224721769E+01    1.7183969741148278E+01    1.1479884169349339E+00
C    2.0237813641526017E+01    1.7211511644115649E+01    1.1344796334157745E+00
C    2.0940965460951432E+01    1.8450526503693446E+01    1.2454189018353614E+00
C    2.2398056448751987E+01    1.8421037256260526E+01    1.2434181372204123E+00
C    1.8811142626869042E+01    1.9692017111473088E+01    1.1790034036883867E+00
C    2.0251354890223226E+01    1.9669068645721687E+01    1.2298314644278481E+00
C    2.0967344715099575E+01    2.0947323551787772E+01    1.2526774442618147E+00
C    2.2400925219422884E+01    2.0899408496297717E+01    1.2974252106194197E+00
C    1.8798613951498403E+01    2.2129936181299982E+01    1.1619285368132077E+00
C    2.0233573016647711E+01    2.2141494034437052E+01    1.2716390295661628E+00
C    2.0958395935743926E+01    1.1055823267680326E+01    1.1515224658437968E+00
C    2.2380363610501053E+01    1.1008900939889159E+01    1.1479178936544421E+00
C    2.3084040153800899E+01   -6.8062531469309337E-02    1.4712634540298031E+00
C    2.4501054283015431E+01   -6.8594834945437375E-02    1.4825830125641801E+00
C    2.5248973544776753E+01    1.1621708111811346E+00    1.5419778622967903E+00
C    2.6677087839046493E+01    1.1880801953646305E+00    1.5632683087454693E+00
C    2.3099542516660502E+01    2.3506912911252642E+00    1.3414995294472349E+00
C    2.4512633700324756E+01    2.3548972398475589E+00    1.5023050562226345E+00
C    2.5191029702108271E+01    3.6467873704581537E+00    1.4122876674110416E+00
C    2.6636161614081153E+01    3.6674747184988825E+00    1.4895873591382482E+00
C    2.3023158500197752E+01    4.8874649867143685E+00    1.3330060131444352E+00
C    2.4464448163003645E+01    4.9052542048835024E+00    1.4808380072183855E+00
C    2.5200381188965412E+01    6.0999712481632100E+00    1.3641457417412426E+00
C    2.6625747395014262E+01    6.1072865506229448E+00    1.3700695026868068E+00
C    2.3071432687143293E+01    7.3388739426443648E+00    1.1961190573024953E+00
C    2.4470862901424329E+01    7.3435056199456472E+00    1.2428946752816767E+00
C    2.5228173291535750E+01    8.5864073242929031E+00    1.0888780293911164E+00
C    2.6658213973943809E+01    8.6255549336029880E+00    1.1935323003527567E+00
C    2.3082574044088204E+01    9.7548410081196142E+00    1.2216031635509377E+00
C    2.4513418254490592E+01    9.7864551767737602E+00    1.0051023248806124E+00
C    2.5214488601815074E+01   -1.2660805262603225E+00    1.5361725931355676E+00
C    2.6608570786346732E+01   -1.2975344792222678E+00    1.4135751862029138E+00
C    2.7360002949465652E+01   -8.5978454919979297E-02    1.4694690918369913E+00
C    2.8787433421261444E+01   -1.1808538256640468E-02    1.3506853391952878E+00
C    2.9479467711503997E+01    1.2324292512201545E+00    1.3218176429491504E+00
C    3.0864030474134960E+01    1.1906876695380593E+00    1.2057130083469660E+00
C    2.7376420901049094E+01    2.4760079336615570E+00    1.5563887970181356E+00
C    2.8775607005108920E+01    2.4321635083095807E+00    1.4692289816220265E+00
C    2.9484099214208047E+01    3.6763780566716036E+00    1.5154965748628935E+00
C    3.0909345883751378E+01    3.6573164585531277E+00    1.4670768380506227E+00
C    2.7362428944058728E+01    4.9264242368775077E+00    1.4451662702914683E+00
C    2.8787574272166790E+01    4.9573259561276579E+00    1.4908580661716673E+00
C    2.9512010882713810E+01    6.1370163464198635E+00    1.4827016402476740E+00
C    3.0963909463396263E+01    6.1213758989705314E+00    1.5928072622468432E+00
C    2.7366433940846505E+01    7.3608010468534761E+00    1.2817967805369137E+00
C    2.8777960562571529E+01    7.3785685213562973E+00    1.3364662719059386E+00
C    2.9490267321973423E+01    8.6205531038532470E+00    1.3100614979451570E+00
C    3.0941989821676916E+01    8.6049706001031847E+00    1.3914645709503819E+00
C    2.7394705651721271E+01    9.8274276525979918E+00    1.1591059504547201E+00
C    2.8803861411569962E+01    9.8432575647656879E+00    1.2493043457129154E+00
C    2.9483761993985286E+01   -1.2716191278697730E+00    1.3189488595548042E+00
C    3.0894564033732973E+01   -1.2746562237002483E+00    1.1373856096237025E+00
C    3.1551925578536430E+01   -4.0412659572611552E-02    1.1529678878526557E+00
C    3.2969022783732662E+01   -6.8790706919475905E-02    1.0683162197444886E+00
C    3.3700222367515885E+01    1.2280370151723761E+00    1.0518482618181473E+00
C    3.5180165605718820E+01    1.2027409351739071E+00    1.0164196236218390E+00
C    3.1578496279332942E+01    2.3842164840756852E+00    1.2935013534166944E+00
C    3.2990119772806054E+01    2.4366505386238773E+00    1.1991752725264846E+00
C    3.3768029687456114E+01    3.6676381103488116E+00    1.3417560582071133E+00
C    3.5188904488891559E+01    3.6792162641828643E+00    1.1905823337970292E+00
C    3.1626416402799329E+01    4.8978691877951430E+00    1.5269429747555978E+00
C    3.3023488912619520E+01    4.9063024096139811E+00    1.5048676701119870E+00
C    3.3754694114648373E+01    6.1369667258723659E+00    1.4131981750619702E+00
C    3.5148780160974631E+01    6.1266591781202999E+00    1.2991031208895063E+00
C    3.1608137103703502E+01    7.3985848001608190E+00    1.5211543914832935E+00
C    3.3059689539953126E+01    7.4010288787403784E+00    1.3750300912468747E+00
C    3.3765606092269266E+01    8.6244135244844529E+00    1.3525355008954258E+00
C    3.5160465981804073E+01    8.6440996906290160E+00    1.2882736332375517E+00
C    3.1596350339766179E+01    9.8326157866734789E+00    1.2945281952326109E+00
C    3.3025509701847945E+01    9.8474092514744278E+00    1.3317493790747448E+00
C    3.3724879778196879E+01   -1.2659956690548519E+00    8.8790742470889839E-01
C    3.5157335098346692E+01   -1.2439331626871268E+00    7.7686123943435204E-01
C    2.3090165321985971E+01    1.2245538983275354E+01    1.0844995941117059E+00
C    2.4484299799905511E+01    1.2232745121397576E+01    9.9264426542219575E-01
C    2.5194396002569700E+01    1.3461310079369364E+01    1.0846526762121027E+00
C    2.6632316431906201E+01    1.3452758739563592E+01    1.1224871301661783E+00
C    2.3115138438133989E+01    1.4763635779468084E+01    1.1636409067959508E+00
C    2.4520984674166925E+01    1.4752705330777941E+01    1.0662677388075747E+00
C    2.5203905844527679E+01    1.6000477025462853E+01    1.1003550627157490E+00
C    2.6629545381124245E+01    1.5999562464422779E+01    9.5508100128727991E-01
C    2.3091625684723006E+01    1.7161507375718035E+01    1.2164711046401440E+00
C    2.4495194993849697E+01    1.7187558658597407E+01    1.2435190927218940E+00
C    2.5200818453092655E+01    1.8449918686197808E+01    1.2287699986546627E+00
C    2.6649906280741032E+01    1.8463592595804734E+01    1.0300068421437150E+00
C    2.3087244017796319E+01    1.9657842902093950E+01    1.2707936813569141E+00
C    2.4532126100176793E+01    1.9656905275848558E+01    1.2467574743240166E+00
C    2.5231181534344238E+01    2.0924052820722945E+01    1.3080836053187757E+00
C    2.6651181347966038E+01    2.0923303250240899E+01    1.1388978951131474E+00
C    2.3065349039114324E+01    2.2131371266473217E+01    1.4692303175694408E+00
C    2.4505971650351892E+01    2.2130296697684116E+01    1.4943615659419376E+00
C    2.5202590921512893E+01    1.1044788116767085E+01    1.0548421223804643E+00
C    2.6626977667836318E+01    1.1026484912557585E+01    1.0429216201354008E+00
C    2.7338138590555172E+01    1.2207051742159482E+01    1.1057784165652982E+00
C    2.8756821569244362E+01    1.2310631456589141E+01    1.1570239191242109E+00
C    2.9456367606371117E+01    1.3521697222397989E+01    1.1815662732329477E+00
C    3.0896319831738730E+01    1.3516140878584897E+01    1.1755598465654780E+00
C    2.7309791397127675E+01    1.4702789030421641E+01    1.0004924166256552E+00
C    2.8754946528516630E+01    1.4738113660147857E+01    9.9215951537526148E-01
C    2.9507483221288823E+01    1.5968406738223152E+01    8.4243295943696239E-01
C    3.0938749596366073E+01    1.5947843922112719E+01    8.4662206770897519E-01
C    2.7389896061607203E+01    1.7209348873056410E+01    9.7533688638693750E-01
C    2.8770807390699240E+01    1.7209689670714063E+01    8.2942612398141835E-01
C    2.9496032364230480E+01    1.8408666862254130E+01    8.6853953679935325E-01
C    3.0899541574995300E+01    1.8439230069302141E+01    8.5326251668886144E-01
C    2.7366349831587659E+01    1.9633543307913097E+01    1.0634099078763832E+00
C    2.8829723138263628E+01    1.9651969548938506E+01    1.0490637355296397E+00
C    2.9511074403310598E+01    2.0908415772542480E+01    1.0390467889807000E+00
C    3.0957284951475408E+01    2.0901347472966219E+01    1.0214693789353864E+00
C    2.7346738732970071E+01    2.2140446881086515E+01    1.3138799167826398E+00
C    2.8772088492459755E+01    2.2155361505417787E+01    1.2219013995777728E+00
C    2.9464569296586326E+01    1.1130023996813931E+01    1.2568240330426261E+00
C    3.0885920318244036E+01    1.1109615207371798E+01    1.2994859274795243E+00
C    3.1621857554804613E+01    1.2323722993982541E+01    1.3265133211554896E+00
C    3.3029397313209529E+01    1.2330643431219938E+01    1.2373282617411876E+00
C    3.3747229381493263E+01    1.3517052863815897E+01    1.2767548891478109E+00
C    3.5186739454682893E+01    1.3544770347684555E+01    1.3990259215125966E+00
C    3.1639203539983800E+01    1.4713561961756122E+01    1.0056986855369379E+00
C    3.3074321615100466E+01    1.4751247485830493E+01    1.1485262766908320E+00
C    3.3836796867497426E+01    1.5965791542588676E+01    1.0453715210502246E+00
C    3.5263855867786674E+01    1.6000299393137166E+01    1.1411602483770595E+00
C    3.1598185132676377E+01    1.7185254829022380E+01    8.3689005103724623E-01
C    3.3079177860624924E+01    1.7212147935701271E+01    9.0998337065599577E-01
C    3.3765868089225187E+01    1.8456972740465545E+01    8.6283302289149000E-01
C    3.5232476377236893E+01    1.8498424243156773E+01    8.8846972068352847E-01
C    3.1612419107533960E+01    1.9667216276122314E+01    9.2517297708181401E-01
C    3.3032036816935864E+01    1.9716444979142693E+01    8.4002655598913134E-01
C    3.3786890863920256E+01    2.0909605615278092E+01    6.9613941065233786E-01
C    3.5208049407163458E+01    2.0955639815665826E+01    6.8491772110258409E-01
C    3.1628833919240797E+01    2.2143958600018166E+01    1.0611307332511701E+00
C    3.3065813505872782E+01    2.2149841329888954E+01    9.0461323719931197E-01
C    3.3762265506762681E+01    1.1101212677840554E+01    1.2659998435697914E+00
C    3.5154592705831135E+01    1.1068186583458965E+01    1.4042431436268443E+00
O    4.5733824852135120E+02    1.7921326653013875E+02    1.0863969055232024E+01
H    4.5686580422446491E+02    1.7828450958529643E+02    1.1018454204538978E+01
H    4.5819236776781372E+02    1.7923381941526597E+02    1.1381504508350295E+01
O    4.4892822797867797E+02    1.4606430095612279E+02    1.3287265333373098E+01
H    4.4935813267918195E+02    1.4670018654000572E+02    1.3935478088678780E+01
H    4.4828700774860852E+02    1.4652628139425534E+02    1.2781698189700998E+01
O    3.9904744639575313E+02    2.1795423023236012E+02    1.1736438780511842E+01
H    3.9987846102384759E+02    2.1763695876133397E+02    1.2200796419019371E+01
H    3.9861118022964189E+02    2.1866534681623438E+02    1.2315279530261337E+01
O    4.9510270420118218E+02    2.1377790005867351E+02    6.7038080873786132E+00
H    4.9594887233281906E+02    2.1431119438423033E+02    6.6577829715351546E+00
H    4.9532247423611528E+02    2.1293590705676922E+02    7.1213521228899817E+00
O    4.5958405363754338E+02    2.1175045279137976E+02    9.0249231145198667E+00
H    4.6041613922672406E+02    2.1130317386784412E+02    9.3871478203631114E+00
H    4.5905511279157781E+02    2.1101458676087054E+02    8.4726164510835282E+00
O    3.8668158572750957E+02    1.6260009191647933E+02    4.4255814249422407E+00
H    3.8645224327921153E+02    1.6352589829211129E+02    4.1702581154029934E+00
H    3.8597559826402909E+02    1.6202941203950991E+02    4.0000581918909548E+00
O    4.8829993598799990E+02    1.7718438416683131E+02    7.4402696013836813E+00
H    4.8801715276106370E+02    1.7695717972787338E+02    6.5079436906065879E+00
H    4.8875458738560462E+02    1.7646673477593774E+02    7.8927602815002960E+00
O    5.0399592344356694E+02    1.4135715387502236E+02    1.4567178089451357E+01
H    5.0482419800466636E+02    1.4126013753877649E+02    1.4986258252443196E+01
H    5.0370310165951201E+02    1.4063233113822315E+02    1.3998083550045459E+01
O    3.4270476113972632E+02    2.6147265457811960E+02    1.7887210584368120E+01
H    3.4233174289515733E+02    2.6152451262992543E+02    1.8775900544294863E+01
H    3.4332030700597755E+02    2.6227261947547345E+02    1.7754509168062445E+01
O    4.2679470697111526E+02    1.8902081186966245E+02    4.3655732256770952E+00
H    4.2586247868499561E+02    1.8853115356456351E+02    4.3777918245612240E+00
H    4.2655885959192460E+02    1.8989110842614258E+02    4.0495858967096945E+00
O    3.6442952573665332E+02    2.3681984222366452E+02    1.5472046802417324E+01
H    3.6525736775697959E+02    2.3638173975560042E+02    1.5675248329061372E+01
H    3.6407047747001724E+02    2.3653687922037048E+02    1.4605081941183512E+01
O    3.4410376265274613E+02    1.6651389370073389E+02    1.5610741727668833E+01
H    3.4340520439988063E+02    1.6708841908377241E+02    1.5979072179848909E+01
H    3.4453390226875689E+02    1.6701561747333292E+02    1.4829836398664424E+01
O    3.7145595768788496E+02    9.0583180638371985E+01    1.0425040818233413E+01
H    3.7080974186994877E+02    9.0541965985789901E+01    1.1245173084679291E+01
H    3.7073164820527347E+02    9.0257347178767958E+01    9.7574731250140747E+00
O    5.5623465981642687E+02    7.8055553974253797E+01    1.1708528133277810E+01
H    5.5569358656379507E+02    7.7620912940893490E+01    1.1032729793481764E+01
H    5.5607056505347214E+02    7.9045461828834718E+01    1.1571101420752957E+01
O    3.0685245105250920E+02    2.8783246401097909E+02    4.8970912416090204E+00
H    3.0606701922408962E+02    2.8837800413024706E+02    4.7026541692308106E+00
H    3.0678580838885330E+02    2.8758333065277861E+02    5.8119528284613624E+00
O    4.7741216509399698E+02    2.9181738381302426E+02    1.3940971594199715E+01
H    4.7656042894765676E+02    2.9162037837382144E+02    1.4394051679456281E+01
H    4.7800259774156353E+02    2.9105167528432486E+02    1.4099324000508872E+01
O    4.2457854355066860E+02    2.2758480889698620E+02    8.6111884559110496E+00
H    4.2527838053487062E+02    2.2802547219851544E+02    8.0717196236518856E+00
H    4.2377988414375938E+02    2.2816681143018388E+02    8.5523550432720103E+00
O    3.9717683152651205E+02    1.5358688794252564E+02    1.6866951481211061E+01
H    3.9794709977973156E+02    1.5303019414394956E+02    1.7224194579966316E+01
H    3.9723672672736745E+02    1.5446603816070061E+02    1.7258827454518716E+01
O    3.9722347752835663E+02    1.6340228533865766E+02    2.0748471950285303E+01
H    3.9772720870119412E+02    1.6303383976987226E+02    1.9937472867742009E+01