 # Version information for this restart file 
 # current date 2020-04-18 23:50:35.394
 # current working dir /scratch/snx3000/gtocci/gtocci/MEMBRANES/AIMD_US_IONS_GRA/us_aimd_new/us_20
 # Program compiled at                              Fri Nov 22 15:19:42 CET 2019
 # Program compiled on                                                  daint102
 # Program compiled for                                   CRAY_XC50-gfortran_gpu
 # Source code revision number                                       git:a698b45
 &GLOBAL
   PRINT_LEVEL  LOW
   PROJECT_NAME GRAS
   RUN_TYPE  MD
   WALLTIME 86400
 &END GLOBAL
 &MOTION
   &MD
     ENSEMBLE  NVT
     STEPS  2000
     TIMESTEP     9.9999999999999989E-01
     STEP_START_VAL  73192
     TIME_START_VAL     7.3191999999940890E+04
     ECONS_START_VAL    -8.3039040583460792E+03
     TEMPERATURE     3.0000000000000000E+02
     TEMP_KIND  T
     &BAROSTAT
       PRESSURE     1.0000000000000000E+00
       TIMECON     9.9999999999999986E+01
       VIRIAL  Z
     &END BAROSTAT
     &THERMOSTAT
       TYPE  NOSE
       REGION  GLOBAL
       &NOSE
         LENGTH  4
         TIMECON     9.9999999999999986E+01
         MTS  2
         &COORD
               1.5581122966344166E-01   -1.7661151727222112E+01    2.0672169401713131E+01   -2.2891047643279485E+01
         &END COORD
         &VELOCITY
               2.8630465845429731E-06   -7.0500638008850957E-05    7.8653825478376701E-05    1.9192641629185467E-04
         &END VELOCITY
         &MASS
               7.0145132684705392E+07    1.6237299232570693E+04    1.6237299232570693E+04    1.6237299232570693E+04
         &END MASS
         &FORCE
              -1.9688120902418998E-09   -2.3098819430568118E-08   -5.3539673890450030E-08   -5.2323589587722126E-08
         &END FORCE
       &END NOSE
     &END THERMOSTAT
     &AVERAGES  T
       &RESTART_AVERAGES
         ITIMES_START  1
         AVECPU     3.0901709030536878E+01
         AVEHUGONIOT     0.0000000000000000E+00
         AVETEMP_BARO     0.0000000000000000E+00
         AVEPOT    -8.3065740091671669E+03
         AVEKIN     2.0551382899010493E+00
         AVETEMP     3.0044470828025669E+02
         AVEKIN_QM     0.0000000000000000E+00
         AVETEMP_QM     0.0000000000000000E+00
         AVEVOL     2.1331414786626247E+05
         AVECELL_A     4.8437460238122313E+01
         AVECELL_B     4.6608961231948342E+01
         AVECELL_C     9.4486306644281314E+01
         AVEALPHA     9.0000000000000043E+01
         AVEBETA     9.0000000000000043E+01
         AVEGAMMA     9.0000000000000043E+01
         AVE_ECONS     4.0699749012136466E-01
         AVE_PRESS     0.0000000000000000E+00
         AVE_PXX     0.0000000000000000E+00
       &END RESTART_AVERAGES
     &END AVERAGES
     &PRINT
       &TEMP_KIND  SILENT
       &END TEMP_KIND
     &END PRINT
   &END MD
   &FREE_ENERGY
     &METADYN
       MIN_DISP    -1.0000000000000000E+00
       OLD_HILL_NUMBER  0
       OLD_HILL_STEP  0
       DO_HILLS  F
       STEP_START_VAL  73192
       NHILLS_START_VAL  0
       &METAVAR
         SCALE     1.0000000000000000E+00
         COLVAR  1
       &END METAVAR
       &PRINT
         &COLVAR  SILENT
           COMMON_ITERATION_LEVELS  3
           &EACH
             MD  1
           &END EACH
         &END COLVAR
       &END PRINT
     &END METADYN
   &END FREE_ENERGY
   &CONSTRAINT
     &COLLECTIVE
       COLVAR  1
       INTERMOLECULAR  T
       &RESTRAINT
         K     4.4625385281452931E-04
       &END RESTRAINT
     &END COLLECTIVE
     &COLVAR_RESTART
           1.8897261328856434E+01
     &END COLVAR_RESTART
   &END CONSTRAINT
   &PRINT
     &TRAJECTORY  SILENT
       &EACH
         MD  1
       &END EACH
     &END TRAJECTORY
     &VELOCITIES  SILENT
       &EACH
         MD  1
       &END EACH
     &END VELOCITIES
     &FORCES  SILENT
       UNIT eV*angstrom^-1
       &EACH
         MD  1
       &END EACH
     &END FORCES
     &RESTART  SILENT
       &EACH
         MD  1
       &END EACH
     &END RESTART
     &RESTART_HISTORY  SILENT
       &EACH
         MD  100
       &END EACH
     &END RESTART_HISTORY
   &END PRINT
 &END MOTION
 &FORCE_EVAL
   METHOD  QS
   &DFT
     BASIS_SET_FILE_NAME /users/gtocci/scratch_daint_3000/data_cp2k//BASIS_MOLOPT
     POTENTIAL_FILE_NAME /users/gtocci/scratch_daint_3000/data_cp2k//GTH_POTENTIALS
     WFN_RESTART_FILE_NAME ./GRAS-RESTART.wfn
     CHARGE  -1
     &SCF
       MAX_SCF  10
       EPS_SCF     9.9999999999999995E-07
       SCF_GUESS  RESTART
       &OT  T
         MINIMIZER  DIIS
         PRECONDITIONER  FULL_KINETIC
       &END OT
       &OUTER_SCF  T
         EPS_SCF     9.9999999999999995E-07
         MAX_SCF  30
       &END OUTER_SCF
       &PRINT
         &RESTART  SILENT
           ADD_LAST  NUMERIC
           &EACH
             QS_SCF  50
           &END EACH
         &END RESTART
       &END PRINT
     &END SCF
     &QS
       MAP_CONSISTENT  T
       EXTRAPOLATION  ASPC
       EXTRAPOLATION_ORDER  4
     &END QS
     &MGRID
       NGRIDS  5
       CUTOFF     4.6000000000000000E+02
     &END MGRID
     &XC
       DENSITY_CUTOFF     1.0000000000000000E-10
       GRADIENT_CUTOFF     1.0000000000000000E-10
       TAU_CUTOFF     1.0000000000000000E-10
       &XC_GRID
         XC_DERIV  SPLINE2_SMOOTH
       &END XC_GRID
       &XC_FUNCTIONAL  NO_SHORTCUT
         &LIBXC  T
           FUNCTIONAL XC_GGA_X_OPTB88_VDW
         &END LIBXC
         &VWN  T
         &END VWN
       &END XC_FUNCTIONAL
       &VDW_POTENTIAL
         POTENTIAL_TYPE  NON_LOCAL
         &NON_LOCAL
           TYPE  DRSLL
           VERBOSE_OUTPUT  T
           KERNEL_FILE_NAME /users/gtocci/scratch_daint_3000/data_cp2k//vdW_kernel_table.dat
         &END NON_LOCAL
       &END VDW_POTENTIAL
     &END XC
     &REAL_TIME_PROPAGATION
       INITIAL_WFN  SCF_WFN
     &END REAL_TIME_PROPAGATION
     &PRINT
       &MULLIKEN  SILENT
         FILENAME =GRAS.mulliken
       &END MULLIKEN
     &END PRINT
   &END DFT
   &SUBSYS
     &CELL
       A     2.5632000000000001E+01    0.0000000000000000E+00    0.0000000000000000E+00
       B     0.0000000000000000E+00    2.4664400000000022E+01    0.0000000000000000E+00
       C     0.0000000000000000E+00    0.0000000000000000E+00    5.0000000000000028E+01
       MULTIPLE_UNIT_CELL  1 1 1
     &END CELL
     &COORD
C   -6.6664793308226473E+00    3.2088530745105594E+01   -9.8625413638153585E+00
C   -5.1953136355896321E+00    3.2094583336752869E+01   -9.8110912407949975E+00
C   -4.4798232652659120E+00    3.3339604040796189E+01   -9.6914009485029382E+00
C   -3.0737978344548291E+00    3.3325984076482321E+01   -9.6271702065372047E+00
C   -6.6795153192200418E+00    3.4556227581737339E+01   -9.7592984007896497E+00
C   -5.2205658010397977E+00    3.4572936363349584E+01   -9.6852428900449024E+00
C   -4.5797551342897274E+00    3.5843491198261596E+01   -9.7054733481824389E+00
C   -3.1398226266189702E+00    3.5832530246781246E+01   -9.6868374731729627E+00
C   -6.6856664995173158E+00    3.7048500946516832E+01   -9.7505533533934035E+00
C   -5.2682791912686842E+00    3.7107630601925756E+01   -9.7003399774302697E+00
C   -4.5830630195023554E+00    3.8342950785587007E+01   -9.5852851570816284E+00
C   -3.1258235276452138E+00    3.8299692147454195E+01   -9.5402352601285383E+00
C   -6.6883912725117591E+00    3.9559135127288542E+01   -9.5487247292716670E+00
C   -5.2799032953399729E+00    3.9575233508605507E+01   -9.5250244093233452E+00
C   -4.5268648139341394E+00    4.0790393346802858E+01   -9.5239896098759420E+00
C   -3.0995880568992242E+00    4.0769836103322319E+01   -9.5155378948980225E+00
C   -6.6262370292994763E+00    4.1982628843870664E+01   -9.6562493943313612E+00
C   -5.2382407168732810E+00    4.2000010184752334E+01   -9.6175342723373163E+00
C   -4.4780555642663744E+00    3.0861184231990482E+01   -9.8442996329879673E+00
C   -3.0017520207558390E+00    3.0889323655853964E+01   -9.7637272896198812E+00
C   -2.3518241908575974E+00    3.2069911765146244E+01   -9.6144002602650165E+00
C   -9.0602325935360573E-01    3.2090358674436480E+01   -9.5683163665344413E+00
C   -2.3194762987614675E-01    3.3348154639857590E+01   -9.5313686458162739E+00
C    1.2189563031251174E+00    3.3312069790317643E+01   -9.5940424460194151E+00
C   -2.3982892220025502E+00    3.4588548780626958E+01   -9.5863228423738693E+00
C   -9.9240197777289596E-01    3.4553899535560802E+01   -9.5445738317588802E+00
C   -2.5804787108658567E-01    3.5778203929407091E+01   -9.6208531644629112E+00
C    1.2012719005312553E+00    3.5818704396993134E+01   -9.5666797372881209E+00
C   -2.4080757403080515E+00    3.7080103236980968E+01   -9.6248942518354106E+00
C   -9.7419220015102326E-01    3.7007975967602540E+01   -9.7455734608789655E+00
C   -2.5521336330171518E-01    3.8241009956583412E+01   -9.7635890784897938E+00
C    1.1827709781424700E+00    3.8278057085872589E+01   -9.7529532885158883E+00
C   -2.3923997908376591E+00    3.9504390259486129E+01   -9.5913936164293752E+00
C   -9.5639237140320632E-01    3.9486082875428345E+01   -9.5848393960782801E+00
C   -2.6366148327514688E-01    4.0727385283194607E+01   -9.5768308808251241E+00
C    1.1793307659927739E+00    4.0753799111250657E+01   -9.6171721576349150E+00
C   -2.4015065742267763E+00    4.1991815683728653E+01   -9.5188616124264822E+00
C   -9.6969342204314979E-01    4.1991010252400834E+01   -9.5193350986772032E+00
C   -2.0166227852377980E-01    3.0888479542336825E+01   -9.6260989529845684E+00
C    1.2212748237774622E+00    3.0901412824762083E+01   -9.7374237905227172E+00
C    1.9254199972471171E+00    3.2126061525389872E+01   -9.6762549259420023E+00
C    3.3629893525935923E+00    3.2144037127711854E+01   -9.6303121192094494E+00
C    4.0621777634675409E+00    3.3331737161385711E+01   -9.6093972047147336E+00
C    5.4614644609113006E+00    3.3336557559861014E+01   -9.6043859546589587E+00
C    1.9580452392004446E+00    3.4554072248313084E+01   -9.6404747793756105E+00
C    3.3117354688250673E+00    3.4585670137801941E+01   -9.6542852968918726E+00
C    4.0327308656281557E+00    3.5811302281157971E+01   -9.6616056553595335E+00
C    5.4454048265370618E+00    3.5859060652473005E+01   -9.6193010148625788E+00
C    1.8854057193278408E+00    3.7043980809397013E+01   -9.6815510874647792E+00
C    3.3174691440392805E+00    3.7035196781315200E+01   -9.6922757030785682E+00
C    4.0629740458809156E+00    3.8313065006061535E+01   -9.7505270054782898E+00
C    5.4814582726746250E+00    3.8312262799726028E+01   -9.8007708592091465E+00
C    1.8689532352773073E+00    3.9519100478175105E+01   -9.6998106264940116E+00
C    3.3649617360815349E+00    3.9565203767970146E+01   -9.7008117144525308E+00
C    4.0787357482125675E+00    4.0771181076165632E+01   -9.6699063325801422E+00
C    5.4898562008664467E+00    4.0787873460475289E+01   -9.7526294023763658E+00
C    1.9156074509804026E+00    4.1988400158975814E+01   -9.6117972911910137E+00
C    3.3596951604354430E+00    4.2015841020598145E+01   -9.5943076514126400E+00
C    4.0574868177342553E+00    3.0908895484358752E+01   -9.7111605451880543E+00
C    5.4661613853739892E+00    3.0871782348371173E+01   -9.6767172823025387E+00
C   -6.6318553948453500E+00    4.4441845184298060E+01   -9.6541087941589314E+00
C   -5.1904281639293179E+00    4.4476501863284966E+01   -9.6652724393891187E+00
C   -4.5021010638620753E+00    4.5697623841617506E+01   -9.7140694325586168E+00
C   -3.0582560271005881E+00    4.5700023757701842E+01   -9.7238069658290911E+00
C   -6.6778426597901932E+00    4.6939415285583955E+01   -9.6546147965914031E+00
C   -5.2334851152585626E+00    4.6925896717224923E+01   -9.6978173685913429E+00
C   -4.4940344988498611E+00    4.8090990978826355E+01   -9.7214582173301505E+00
C   -3.1017525738860448E+00    4.8131454173742611E+01   -9.8131411408812141E+00
C   -6.6600558568081052E+00    4.9400592432859831E+01   -9.7139263903668311E+00
C   -5.2379522559260456E+00    4.9344262887695706E+01   -9.7472536192264236E+00
C   -4.5134796995034270E+00    5.0593894610211386E+01   -9.8177582698522095E+00
C   -3.0952303085157222E+00    5.0599594499613822E+01   -9.8020282791512408E+00
C   -6.6681748909180456E+00    5.1838527209370611E+01   -9.8636814402739255E+00
C   -5.2362338130295027E+00    5.1781572370640063E+01   -9.8576691177479443E+00
C   -4.5048321677956924E+00    5.3053859673889043E+01   -9.9142653972037067E+00
C   -3.0810933962721792E+00    5.3082050188800743E+01   -9.8043786481552821E+00
C   -6.6567048493923862E+00    5.4304830606674592E+01   -1.0061542229418158E+01
C   -5.2151822740964606E+00    5.4300062285227185E+01   -1.0003156052312828E+01
C   -4.4851126896164910E+00    4.3231037144339410E+01   -9.6219921178911196E+00
C   -3.0726731704402659E+00    4.3233234827338507E+01   -9.5820874633455801E+00
C   -2.3476541506684807E+00    4.4447859327221423E+01   -9.5832071609325311E+00
C   -9.0438285390194906E-01    4.4472520819365641E+01   -9.5917626773062317E+00
C   -2.3852075152207652E-01    4.5707095541659122E+01   -9.7675632036833999E+00
C    1.2448860978909113E+00    4.5747422427949033E+01   -9.7666862654098328E+00
C   -2.3492328682139361E+00    4.6901050223453879E+01   -9.7736913766051376E+00
C   -9.2804565877794076E-01    4.6929560621407624E+01   -9.8376423408294453E+00
C   -1.9569745068946226E-01    4.8160133020069836E+01   -9.7800579565156358E+00
C    1.2027182780135208E+00    4.8178144321430040E+01   -9.7606060221527216E+00
C   -2.3558073063746119E+00    4.9362363941546270E+01   -9.7821661373205355E+00
C   -9.1101807147291602E-01    4.9364749939245968E+01   -9.7863595195334803E+00
C   -2.0536886233889495E-01    5.0618829616441289E+01   -9.7733417976601284E+00
C    1.2086469295457771E+00    5.0660462541619545E+01   -9.8045377795059032E+00
C   -2.3871078985056653E+00    5.1835613612788457E+01   -9.8086733978435134E+00
C   -9.3662868499251828E-01    5.1840701097474835E+01   -9.7802090889989213E+00
C   -2.2836274833229345E-01    5.3101084166612537E+01   -9.8461395395363880E+00
C    1.1731806754054417E+00    5.3106501852029140E+01   -9.8386380692752340E+00
C   -2.3202081310841809E+00    5.4353983484355894E+01   -9.8081459983167267E+00
C   -9.0372379024589622E-01    5.4362892637977239E+01   -9.7694985968674128E+00
C   -1.9799390332908656E-01    4.3225985793731112E+01   -9.5669830079084885E+00
C    1.2401327227970100E+00    4.3266090490339586E+01   -9.5677645391670634E+00
C    1.9611174702890435E+00    4.4516193718901292E+01   -9.6421087207094391E+00
C    3.3935475776987616E+00    4.4498766649558412E+01   -9.5976320997086315E+00
C    4.0658359537317654E+00    4.5744423533488884E+01   -9.5051730023288030E+00
C    5.4620246349606196E+00    4.5726145664944120E+01   -9.4640000882414199E+00
C    1.9427425088149699E+00    4.6928079060016522E+01   -9.7318138732911255E+00
C    3.3698331648354873E+00    4.6943861626760160E+01   -9.5734266840202391E+00
C    4.0230654682974869E+00    4.8168984358421319E+01   -9.4847272593772765E+00
C    5.4842184737584105E+00    4.8187692767519316E+01   -9.4384964458012561E+00
C    1.9373781501970506E+00    4.9394665182096098E+01   -9.7145068018023846E+00
C    3.3381956507452797E+00    4.9417259960782033E+01   -9.5835041850919751E+00
C    4.0542780283221882E+00    5.0642231632782696E+01   -9.5263898400708040E+00
C    5.4667661340340388E+00    5.0624305077545081E+01   -9.4864324260255515E+00
C    1.9276771664504471E+00    5.1902354963941221E+01   -9.7289782145055490E+00
C    3.3459964296485132E+00    5.1892042032340811E+01   -9.6198838352048561E+00
C    4.1009603687179741E+00    5.3101762649214677E+01   -9.7056744368646335E+00
C    5.5329476965967768E+00    5.3079819699160666E+01   -9.6536807630400787E+00
C    1.9170464107214920E+00    5.4347256844350824E+01   -9.8245847851052126E+00
C    3.3561690501620594E+00    5.4328836094992063E+01   -9.7489162583481139E+00
C    4.0698242535251241E+00    4.3259855856610272E+01   -9.5351451155596259E+00
C    5.4709391663770575E+00    4.3244272141383426E+01   -9.5604267921555781E+00
C    6.1891479968921628E+00    3.2141599504258409E+01   -9.6403660783297962E+00
C    7.5956531439556620E+00    3.2185158484896917E+01   -9.6146352897159613E+00
C    8.3026408245413510E+00    3.3374249027020191E+01   -9.5742919385630199E+00
C    9.7457277649671976E+00    3.3350613564966423E+01   -9.6469990004175532E+00
C    6.1886679187174884E+00    3.4610858764171546E+01   -9.5983555703869836E+00
C    7.5945065758798442E+00    3.4608810740663465E+01   -9.5504957874798961E+00
C    8.2912579033631388E+00    3.5845857498220617E+01   -9.6308099509206038E+00
C    9.7291489541171803E+00    3.5792622576553953E+01   -9.6495809022028318E+00
C    6.1847789263661026E+00    3.7060855791074651E+01   -9.7323978839138938E+00
C    7.5909216198968190E+00    3.7070615003773646E+01   -9.7803263280075754E+00
C    8.2883205253101622E+00    3.8264643109024568E+01   -9.8329912522468668E+00
C    9.7262224112222704E+00    3.8249836473509312E+01   -9.7151020204248546E+00
C    6.2028461226234590E+00    3.9547188664955534E+01   -9.8264429288145170E+00
C    7.6146845190837444E+00    3.9528025042500104E+01   -9.7817188025538151E+00
C    8.3353668038587418E+00    4.0749138939546441E+01   -9.6243215988184119E+00
C    9.7280121803350017E+00    4.0729783514529124E+01   -9.5746515410025133E+00
C    6.1922544633138541E+00    4.2031757835667115E+01   -9.6550194020285840E+00
C    7.6062370118593146E+00    4.1995393037392816E+01   -9.5412701160208808E+00
C    8.3514152859511910E+00    3.0952501393581265E+01   -9.7629414370159306E+00
C    9.7833191455813502E+00    3.0926747990093197E+01   -9.8118254898572879E+00
C    1.0474276175495357E+01    3.2139396706255042E+01   -9.7456240455736030E+00
C    1.1868349147933777E+01    3.2097777352757092E+01   -9.8016237002014819E+00
C    1.2554141081914915E+01    3.3351710962190296E+01   -9.8638922195638035E+00
C    1.3949231838469091E+01    3.3329359344533856E+01   -9.9717780609354456E+00
C    1.0450541764830605E+01    3.4582863965592288E+01   -9.6334646291988104E+00
C    1.1868753470760833E+01    3.4593991312169933E+01   -9.7477702957937353E+00
C    1.2572322955915714E+01    3.5794692511896898E+01   -9.7470747576750565E+00
C    1.3975204541556751E+01    3.5773218325866843E+01   -9.8905792367530783E+00
C    1.0439893951244695E+01    3.7030852919959614E+01   -9.6452852825787847E+00
C    1.1851127263798235E+01    3.7005828264976309E+01   -9.6756040385361484E+00
C    1.2551695747541999E+01    3.8251282510120554E+01   -9.6639461073999886E+00
C    1.4018381663951015E+01    3.8303488000769747E+01   -9.7775114392935976E+00
C    1.0448941970260638E+01    3.9472137387584901E+01   -9.5727450458787029E+00
C    1.1857691103480908E+01    3.9486145276726660E+01   -9.5543855691153219E+00
C    1.2560708887950156E+01    4.0767459706701381E+01   -9.5412485483958314E+00
C    1.4007793161563967E+01    4.0768631057255675E+01   -9.6007972286522900E+00
C    1.0405331624888076E+01    4.1959776454171973E+01   -9.5539751582090453E+00
C    1.1847608729023616E+01    4.1970153147638129E+01   -9.6169877151364975E+00
C    1.2634871468588662E+01    3.0869786395728962E+01   -9.8718133522855673E+00
C    1.4037773982995471E+01    3.0880142984803811E+01   -9.9605707631169711E+00
C    1.4702107733582299E+01    3.2099712920210429E+01   -1.0005941028608207E+01
C    1.6138299547168568E+01    3.2120236447718341E+01   -1.0055744490404534E+01
C    1.6866815637311955E+01    3.3362980981723254E+01   -9.9946266158036181E+00
C    1.8249554672343816E+01    3.3344512678422284E+01   -9.8391009015919888E+00
C    1.4685111415385911E+01    3.4537039686424528E+01   -1.0009577489042154E+01
C    1.6128740412893883E+01    3.4555619451682205E+01   -9.9804473586612108E+00
C    1.6861337569448473E+01    3.5771979379889409E+01   -9.8385183884315328E+00
C    1.8308931876169158E+01    3.5804931699103967E+01   -9.7149193816606019E+00
C    1.4683050437290413E+01    3.6998863170925603E+01   -9.8866235824053028E+00
C    1.6165266669175619E+01    3.7022790858690449E+01   -9.8270440039202374E+00
C    1.6822201896294697E+01    3.8277957755954446E+01   -9.6989284839965464E+00
C    1.8241682639885116E+01    3.8305663152154260E+01   -9.6373917753617846E+00
C    1.4712582017362507E+01    3.9529121689993652E+01   -9.7080789466317370E+00
C    1.6124850828349089E+01    3.9516185487182888E+01   -9.6890214299740425E+00
C    1.6835854483084926E+01    4.0797353508622408E+01   -9.6630057376604288E+00
C    1.8259658725271844E+01    4.0806136163714868E+01   -9.5870935013493259E+00
C    1.4699466375289951E+01    4.1983115665539025E+01   -9.7059142340060571E+00
C    1.6117209280296834E+01    4.1973665301192369E+01   -9.7921100505202840E+00
C    1.6811095713508642E+01    3.0843794620107897E+01   -1.0098788617005743E+01
C    1.8254616487443844E+01    3.0870223117860480E+01   -1.0016087208443722E+01
C    6.1558769786927581E+00    4.4448543929540214E+01   -9.5091900674518666E+00
C    7.5937235065608730E+00    4.4456215430372467E+01   -9.5582512668790844E+00
C    8.3118782230716235E+00    4.5684760607369249E+01   -9.5286586485446971E+00
C    9.7230736908385822E+00    4.5658099129063473E+01   -9.5958991356321128E+00
C    6.1565469534316870E+00    4.6937330161952858E+01   -9.4274153227133493E+00
C    7.5740788785429913E+00    4.6927270178307978E+01   -9.3958266814099147E+00
C    8.2888329742710631E+00    4.8133370848211655E+01   -9.4332008035120776E+00
C    9.7402705239106844E+00    4.8160918035690358E+01   -9.4593580209620640E+00
C    6.2184397955180781E+00    4.9403215258555946E+01   -9.4515612050805231E+00
C    7.6701988927584637E+00    4.9386260025977897E+01   -9.4576330612824986E+00
C    8.3963206895089595E+00    5.0628923503307398E+01   -9.4704628529414006E+00
C    9.7979667221623838E+00    5.0599365795271325E+01   -9.5826545815337880E+00
C    6.2109754150275558E+00    5.1831422052526918E+01   -9.5623520829215654E+00
C    7.6515716851599240E+00    5.1880816530384045E+01   -9.4981400634240050E+00
C    8.3601849701727300E+00    5.3129499435096754E+01   -9.5954386577631805E+00
C    9.8001005416234221E+00    5.3105372138870358E+01   -9.6212958882218675E+00
C    6.2045762718055961E+00    5.4319305772516081E+01   -9.6889352540767906E+00
C    7.6252766621221886E+00    5.4316124069879905E+01   -9.6591966616903946E+00
C    8.3238828524811730E+00    4.3226170264671573E+01   -9.4872251111290353E+00
C    9.7417092192190147E+00    4.3205474109227737E+01   -9.5812055922281889E+00
C    1.0426634361342416E+01    4.4450717342143847E+01   -9.6662599838799199E+00
C    1.1841798734737324E+01    4.4511263126565986E+01   -9.6608412798270678E+00
C    1.2536228354668678E+01    4.5706906031569574E+01   -9.7308014703198715E+00
C    1.3990261540771632E+01    4.5692597023566222E+01   -9.7043847341143845E+00
C    1.0451210804372732E+01    4.6923357810912158E+01   -9.4660819363120883E+00
C    1.1879464712303154E+01    4.6936060647317362E+01   -9.6566300645784011E+00
C    1.2592379333055817E+01    4.8165420081285902E+01   -9.6011500249726041E+00
C    1.3988075221985280E+01    4.8200885447041983E+01   -9.6086340725046195E+00
C    1.0496163590193913E+01    4.9379005299442674E+01   -9.5602513225672503E+00
C    1.1922590354894169E+01    4.9396488840155932E+01   -9.5858857494910676E+00
C    1.2609609712580127E+01    5.0657250863908118E+01   -9.6073522927135766E+00
C    1.4017577971500579E+01    5.0651026056313277E+01   -9.6415435377447061E+00
C    1.0488142403915683E+01    5.1863406786717128E+01   -9.6348220997851328E+00
C    1.1901422353430801E+01    5.1895052143587193E+01   -9.6401748170887984E+00
C    1.2595669867524306E+01    5.3123070534178240E+01   -9.7748361676360940E+00
C    1.3984024229448215E+01    5.3067421533874452E+01   -9.8292384447628613E+00
C    1.0482420724732471E+01    5.4343064833659177E+01   -9.7474550872686887E+00
C    1.1880617936396701E+01    5.4351460201807598E+01   -9.8455418021784631E+00
C    1.2550124144233664E+01    4.3293536426062701E+01   -9.5926913654977533E+00
C    1.3986473322485860E+01    4.3206583661355751E+01   -9.7245871995212436E+00
C    1.4685510252122690E+01    4.4430242350578503E+01   -9.7018336909458114E+00
C    1.6110417676131419E+01    4.4466612994228406E+01   -9.7560624843818537E+00
C    1.6819217563858910E+01    4.5656170267833900E+01   -9.7308413723305041E+00
C    1.8260682885759095E+01    4.5678770077316777E+01   -9.7463110971902918E+00
C    1.4690161059739435E+01    4.6931696212853552E+01   -9.5930274254860990E+00
C    1.6113968362965359E+01    4.6892040262063993E+01   -9.5691203628011596E+00
C    1.6818915066935457E+01    4.8129590458305124E+01   -9.5406944637132565E+00
C    1.8235069269117069E+01    4.8173750563505237E+01   -9.5871016810545377E+00
C    1.4698740444894966E+01    4.9421782389071730E+01   -9.5028364408776991E+00
C    1.6076723722106809E+01    4.9388170912309462E+01   -9.5471402181882929E+00
C    1.6833386278788353E+01    5.0583930288417157E+01   -9.7162445085497069E+00
C    1.8246342385076950E+01    5.0638348267954406E+01   -9.7381562616752078E+00
C    1.4701820481163420E+01    5.1858702611499574E+01   -9.7982500342886887E+00
C    1.6140922230118793E+01    5.1849527516918627E+01   -9.8250993470687789E+00
C    1.6854713727059632E+01    5.3069885712324243E+01   -9.9955990024224963E+00
C    1.8266034548154192E+01    5.3081106102757275E+01   -9.9780993637162592E+00
C    1.4723322753245080E+01    5.4307534391840335E+01   -9.9665714410433104E+00
C    1.6156804166630774E+01    5.4282304944018520E+01   -1.0022970103115087E+01
C    1.6839622138924447E+01    4.3232485773621491E+01   -9.7926932889771994E+00
C    1.8284546429766291E+01    4.3230908769172011E+01   -9.7353377984631990E+00
O    5.8191670426187599E+01    2.3292174341245754E+02    4.0967228879812376E+00
H    5.7818120530353013E+01    2.3237190565316780E+02    3.3886462191960813E+00
H    5.7617026604463319E+01    2.3278919191459096E+02    4.9107046611082268E+00
O    7.1009416907369186E+01    1.9432436812235480E+02    4.5166694211304886E-01
H    7.0492813617577426E+01    1.9513790335235575E+02    3.2737093185243382E-01
H    7.0581630437670938E+01    1.9377729143383513E+02    1.1601122629848557E+00
O    7.0972057951756739E+01    2.5972983217925332E+02   -2.4380177948029336E+00
H    7.0269296708733222E+01    2.5901150750565205E+02   -2.2220372789941174E+00
H    7.1330718898974993E+01    2.6005311949499111E+02   -1.5683053350807339E+00
O    1.3503616600907404E+02    2.1064299088443980E+02    7.6993603379218536E+00
H    1.3588953400327165E+02    2.1097325762959358E+02    7.4203104092995167E+00
H    1.3471768719872014E+02    2.1126425871327933E+02    8.4265215508656812E+00
O    5.7695116283155912E+01    2.2361248675150543E+02    2.8760108262974660E+00
H    5.7274185680376227E+01    2.2398709152926406E+02    3.7075357343624269E+00
H    5.8553833576832638E+01    2.2329791561367816E+02    3.2354491849993887E+00
O    6.2402770969623500E+00    2.4275658486393044E+02   -3.6213205515820661E+00
H    6.2693080383723769E+00    2.4334201301323364E+02   -4.4063595065100589E+00
H    5.4445899883352977E+00    2.4211794791894135E+02   -3.8882703931117759E+00
O    8.7866251129770703E+01    3.0835391255769434E+02   -6.1021976161546885E+00
H    8.7884588492729520E+01    3.0828014613361552E+02   -5.0893157373821145E+00
H    8.7861019562607069E+01    3.0743524587079833E+02   -6.3850359895684488E+00
O   -2.3138858350582236E+01    2.3847423568140024E+02    4.7150625437256011E+00
H   -2.3603597369131414E+01    2.3874394908639061E+02    5.5201963249759087E+00
H   -2.2463452718573048E+01    2.3918936147355811E+02    4.5120079512924240E+00
O   -5.7111773232564460E+01    2.2717761253053106E+02    2.5404486818332388E+00
H   -5.7375236816351119E+01    2.2638554524031895E+02    1.9734654099005351E+00
H   -5.8004691533182061E+01    2.2748155245733665E+02    2.9490811547445781E+00
O    1.4481873724735800E+02    2.9160435307028115E+02   -6.7318291604204008E+00
H    1.4568359137427942E+02    2.9199881599799943E+02   -6.7604878016591341E+00
H    1.4430669424018606E+02    2.9180317680340909E+02   -5.9413645707849829E+00
O    3.8642446183968872E+01    2.5132307022031790E+02    7.7468455202353692E-01
H    3.7746320671067373E+01    2.5174658684753550E+02    7.6128197144833021E-01
H    3.8651674405910377E+01    2.5097024965044380E+02   -8.1765241175996900E-02
O   -4.4213283339402196E+01    2.6172260945299445E+02   -6.7263997405586569E+00
H   -4.4593957460733535E+01    2.6160626670577727E+02   -7.6384642164423520E+00
H   -4.3281567026271354E+01    2.6202976119979314E+02   -6.7880161150999250E+00
O    2.4985525429351611E+01    1.8420004838088843E+02   -3.7107644485329603E+00
H    2.4977208779666775E+01    1.8425118235682379E+02   -4.6456762236796427E+00
H    2.5271302207140941E+01    1.8331109699527036E+02   -3.5059073951956954E+00
O    1.0151676754853573E+02    1.0741123651170228E+02    1.6984365672447221E+00
H    1.0161523158491435E+02    1.0737859125079804E+02    2.6903734599928120E+00
H    1.0058555505370138E+02    1.0768609080146629E+02    1.4167093474771009E+00
O    5.3279034541262078E+00    4.0404656661777716E+02   -9.7393864157474885E-01
H    5.5652885966355514E+00    4.0344076935364080E+02   -1.9673402547329091E-01
H    4.6613988766224832E+00    4.0360149686944425E+02   -1.5611064105120880E+00
O    5.3631017231403213E+01    2.8261654828063018E+02   -1.2337666730331083E+00
H    5.4436305199933969E+01    2.8309558925587515E+02   -8.5560041633803208E-01
H    5.3654790880221171E+01    2.8262362320173798E+02   -2.1912603361033214E+00
O    4.3243833087703727E+01    2.6363902176111043E+02   -1.9697882826700941E+00
H    4.2559984528089942E+01    2.6371099293082733E+02   -2.6830151231678570E+00
H    4.2971235140788053E+01    2.6294411780423184E+02   -1.2661935508325750E+00
O    6.1029702052812889E+00    2.4773194667562711E+02    8.8638805077062628E+00
H    5.6711543890493585E+00    2.4847764634556427E+02    9.3520885539853147E+00
H    6.3360634697095000E+00    2.4803671595960594E+02    7.9303254258788174E+00
O    3.3782550995488374E+00    2.3712669884429189E+02    3.7912938267565910E-01
H    2.9811138790126921E+00    2.3799044508440420E+02    7.1363571935879166E-01