 # Version information for this restart file 
 # current date 2020-01-08 16:42:14.061
 # current working dir /scratch/snx3000/gtocci/gtocci/MEMBRANES/AIMD_US_IONS_BN/aimd_us_pot/us_7
 # Program compiled at                              Fri Nov 22 15:19:42 CET 2019
 # Program compiled on                                                  daint102
 # Program compiled for                                   CRAY_XC50-gfortran_gpu
 # Source code revision number                                       git:a698b45
 &GLOBAL
   PRINT_LEVEL  LOW
   PROJECT_NAME BNS
   RUN_TYPE  MD
   WALLTIME 86400
 &END GLOBAL
 &MOTION
   &MD
     ENSEMBLE  NVT
     STEPS  2000
     TIMESTEP     9.9999999999999989E-01
     STEP_START_VAL  32000
     TIME_START_VAL     3.2000000000004537E+04
     ECONS_START_VAL    -8.4996605199839869E+03
     TEMPERATURE     3.0000000000000000E+02
     TEMP_KIND  T
     &BAROSTAT
       PRESSURE     1.0000000000000000E+00
       TIMECON     9.9999999999999986E+01
       VIRIAL  Z
     &END BAROSTAT
     &THERMOSTAT
       TYPE  NOSE
       REGION  GLOBAL
       &NOSE
         LENGTH  4
         TIMECON     9.9999999999999986E+01
         MTS  2
         &COORD
               2.4410200094903273E-01    9.8894286392038175E+00    3.0084004294777831E+01   -3.0153076945114631E+01
         &END COORD
         &VELOCITY
               1.2836160711855727E-07    1.4933532166182639E-04   -2.7044805687831772E-06   -1.4304856542546752E-04
         &END VELOCITY
         &MASS
               7.0145132684705392E+07    1.6237299232570693E+04    1.6237299232570693E+04    1.6237299232570693E+04
         &END MASS
         &FORCE
              -2.0910338454157861E-10   -5.8438834496678572E-08   -3.6208975554263909E-08   -5.8502699634958143E-08
         &END FORCE
       &END NOSE
     &END THERMOSTAT
     &AVERAGES  T
       &RESTART_AVERAGES
         ITIMES_START  1
         AVECPU     2.4470707275704772E+01
         AVEHUGONIOT     0.0000000000000000E+00
         AVETEMP_BARO     0.0000000000000000E+00
         AVEPOT    -8.5024775487810966E+03
         AVEKIN     2.0530744137825052E+00
         AVETEMP     3.0014298617162314E+02
         AVEKIN_QM     0.0000000000000000E+00
         AVETEMP_QM     0.0000000000000000E+00
         AVEVOL     2.2086622704880580E+05
         AVECELL_A     4.9287836997924984E+01
         AVECELL_B     4.7426456757032149E+01
         AVECELL_C     9.4486306644278784E+01
         AVEALPHA     9.0000000000000000E+01
         AVEBETA     9.0000000000000000E+01
         AVEGAMMA     9.0000000000000000E+01
         AVE_ECONS     1.1531571671956522E+01
         AVE_PRESS     0.0000000000000000E+00
         AVE_PXX     0.0000000000000000E+00
       &END RESTART_AVERAGES
     &END AVERAGES
     &PRINT
       &TEMP_KIND  SILENT
       &END TEMP_KIND
     &END PRINT
   &END MD
   &FREE_ENERGY
     &METADYN
       MIN_DISP    -1.0000000000000000E+00
       OLD_HILL_NUMBER  0
       OLD_HILL_STEP  0
       DO_HILLS  F
       STEP_START_VAL  32000
       NHILLS_START_VAL  0
       &METAVAR
         SCALE     1.0000000000000000E+00
         COLVAR  1
       &END METAVAR
       &PRINT
         &COLVAR  SILENT
           COMMON_ITERATION_LEVELS  3
           &EACH
             MD  1
           &END EACH
         &END COLVAR
       &END PRINT
     &END METADYN
   &END FREE_ENERGY
   &CONSTRAINT
     &COLLECTIVE
       COLVAR  1
       INTERMOLECULAR  T
       &RESTRAINT
         K     4.4625385281452931E-04
       &END RESTRAINT
     &END COLLECTIVE
     &COLVAR_RESTART
           6.8363752090519716E+00
     &END COLVAR_RESTART
   &END CONSTRAINT
   &PRINT
     &TRAJECTORY  SILENT
       &EACH
         MD  1
       &END EACH
     &END TRAJECTORY
     &VELOCITIES  SILENT
       &EACH
         MD  1
       &END EACH
     &END VELOCITIES
     &FORCES  SILENT
       UNIT eV*angstrom^-1
       &EACH
         MD  1
       &END EACH
     &END FORCES
     &RESTART  SILENT
       &EACH
         MD  1
       &END EACH
     &END RESTART
     &RESTART_HISTORY  SILENT
       &EACH
         MD  100
       &END EACH
     &END RESTART_HISTORY
   &END PRINT
 &END MOTION
 &FORCE_EVAL
   METHOD  QS
   &DFT
     BASIS_SET_FILE_NAME /users/gtocci/scratch_daint_3000/data_cp2k//BASIS_MOLOPT
     POTENTIAL_FILE_NAME /users/gtocci/scratch_daint_3000/data_cp2k//GTH_POTENTIALS
     WFN_RESTART_FILE_NAME ./BNS-RESTART.wfn
     CHARGE  1
     &SCF
       MAX_SCF  10
       EPS_SCF     9.9999999999999995E-07
       SCF_GUESS  RESTART
       &OT  T
         MINIMIZER  DIIS
         PRECONDITIONER  FULL_KINETIC
       &END OT
       &OUTER_SCF  T
         EPS_SCF     9.9999999999999995E-07
         MAX_SCF  30
       &END OUTER_SCF
       &PRINT
         &RESTART  SILENT
           ADD_LAST  NUMERIC
           &EACH
             QS_SCF  50
           &END EACH
         &END RESTART
       &END PRINT
     &END SCF
     &QS
       MAP_CONSISTENT  T
       EXTRAPOLATION  ASPC
       EXTRAPOLATION_ORDER  4
     &END QS
     &MGRID
       NGRIDS  5
       CUTOFF     4.6000000000000000E+02
     &END MGRID
     &XC
       DENSITY_CUTOFF     1.0000000000000000E-10
       GRADIENT_CUTOFF     1.0000000000000000E-10
       TAU_CUTOFF     1.0000000000000000E-10
       &XC_GRID
         XC_DERIV  SPLINE2_SMOOTH
       &END XC_GRID
       &XC_FUNCTIONAL  NO_SHORTCUT
         &LIBXC  T
           FUNCTIONAL XC_GGA_X_OPTB88_VDW
         &END LIBXC
         &VWN  T
         &END VWN
       &END XC_FUNCTIONAL
       &VDW_POTENTIAL
         POTENTIAL_TYPE  NON_LOCAL
         &NON_LOCAL
           TYPE  DRSLL
           VERBOSE_OUTPUT  T
           KERNEL_FILE_NAME /users/gtocci/scratch_daint_3000/data_cp2k//vdW_kernel_table.dat
           CUTOFF     3.6000000000000000E+02
         &END NON_LOCAL
       &END VDW_POTENTIAL
     &END XC
     &REAL_TIME_PROPAGATION
       INITIAL_WFN  SCF_WFN
     &END REAL_TIME_PROPAGATION
     &PRINT
       &MULLIKEN  SILENT
         FILENAME =BNS.mulliken
       &END MULLIKEN
     &END PRINT
   &END DFT
   &SUBSYS
     &CELL
       A     2.6082000000000019E+01    0.0000000000000000E+00    0.0000000000000000E+00
       B     0.0000000000000000E+00    2.5097000000000001E+01    0.0000000000000000E+00
       C     0.0000000000000000E+00    0.0000000000000000E+00    5.0000000000000028E+01
       MULTIPLE_UNIT_CELL  1 1 1
     &END CELL
     &COORD
B   -1.9245862312359851E+01    1.2820154398199282E+01   -1.7437346646213953E+01
B   -1.7068987848533883E+01    1.4051442022968379E+01   -1.7425873753835759E+01
B   -1.9278345387272577E+01    1.5376875013983280E+01   -1.7631930564981005E+01
B   -1.7062109130811013E+01    1.6560858519469665E+01   -1.7492467337128073E+01
B   -1.9234355989395102E+01    1.7868305595619567E+01   -1.7658977290507867E+01
B   -1.7056448476514003E+01    1.9118661395478203E+01   -1.7543783632763745E+01
B   -1.9200380549444009E+01    2.0305972737558879E+01   -1.7570191949397760E+01
B   -1.7088728911706244E+01    2.1653409401938283E+01   -1.7561309532027735E+01
B   -1.9252741028020480E+01    2.2843881304647816E+01   -1.7683594627779740E+01
B   -1.7047284321496321E+01    2.4109775223186716E+01   -1.7477354774530003E+01
B   -1.4915712724338574E+01    1.2838843179727029E+01   -1.7110658132644662E+01
B   -1.2689605952031153E+01    1.4073917594745174E+01   -1.7091035038486389E+01
B   -1.4920365310872103E+01    1.5344417573639273E+01   -1.7298018033770482E+01
B   -1.2696730211516524E+01    1.6595090543925096E+01   -1.7409767025075528E+01
B   -1.4922820837872123E+01    1.7791758894094023E+01   -1.7506298636600928E+01
B   -1.2741773515283795E+01    1.9149569837863769E+01   -1.7560367853488124E+01
B   -1.4892849255784112E+01    2.0387356939411045E+01   -1.7406425837709779E+01
B   -1.2655920270244589E+01    2.1648996513738084E+01   -1.7562245134016354E+01
B   -1.4838681850470783E+01    2.2858519639128634E+01   -1.7472048945456500E+01
B   -1.2657758920958381E+01    2.4145677694015976E+01   -1.7475077104375213E+01
B   -1.0558695731644621E+01    1.2737295251341653E+01   -1.7164717452909787E+01
B   -8.3792024757853927E+00    1.4028712972497781E+01   -1.7516460280327106E+01
B   -1.0549463731966762E+01    1.5246687130480684E+01   -1.7417649886867554E+01
B   -8.3360078045200510E+00    1.6536607259765621E+01   -1.7765119388776416E+01
B   -1.0578781052640565E+01    1.7806254410897523E+01   -1.7758650007953548E+01
B   -8.3659490232800540E+00    1.9079471451633850E+01   -1.7873564798500450E+01
B   -1.0514310813664219E+01    2.0374555521742455E+01   -1.7883351381819352E+01
B   -8.3557940141960980E+00    2.1609571759499580E+01   -1.7972271290423944E+01
B   -1.0480144570764036E+01    2.2897904376035118E+01   -1.7735184820953346E+01
B   -8.3209084191013041E+00    2.4102539383567898E+01   -1.7588148924949408E+01
N   -1.7800606496895451E+01    1.2768232394882487E+01   -1.7373080760618191E+01
N   -1.5673786700206026E+01    1.4082423953329682E+01   -1.7253693089852838E+01
N   -1.7812017599070444E+01    1.5280757694083540E+01   -1.7574907451774262E+01
N   -1.5630918105959053E+01    1.6543294214093223E+01   -1.7472959326252212E+01
N   -1.7777464860171200E+01    1.7840825854788598E+01   -1.7477388839409070E+01
N   -1.5625270765181730E+01    1.9061056449703504E+01   -1.7489381857204762E+01
N   -1.7766394580468095E+01    2.0368500860062412E+01   -1.7534837914238764E+01
N   -1.5603690276404008E+01    2.1621790907005622E+01   -1.7518015064084317E+01
N   -1.7792385337708208E+01    2.2888684790633285E+01   -1.7621188442002428E+01
N   -1.5588986272085748E+01    2.4091919792611158E+01   -1.7442849850382729E+01
N   -1.3406458931524995E+01    1.2808718327000621E+01   -1.7002147275899496E+01
N   -1.1225439071778270E+01    1.4036234887864907E+01   -1.7138573443911504E+01
N   -1.3421656811516087E+01    1.5350611100437352E+01   -1.7172239504476671E+01
N   -1.1275250367248267E+01    1.6524276178060671E+01   -1.7658483247047648E+01
N   -1.3435780602699431E+01    1.7889279423700405E+01   -1.7473770735281089E+01
N   -1.1281289758992543E+01    1.9131732075492756E+01   -1.7722264800166201E+01
N   -1.3424580015418512E+01    2.0404025355992864E+01   -1.7389720171962910E+01
N   -1.1186743975473998E+01    2.1661905749276151E+01   -1.7785144605429014E+01
N   -1.3350998079572822E+01    2.2903288950639009E+01   -1.7551739348217488E+01
N   -1.1183541577059092E+01    2.4130514973098979E+01   -1.7560019508952831E+01
N   -9.1103284201943264E+00    1.2763918700543886E+01   -1.7271116386222783E+01
N   -6.8904302821048020E+00    1.4002256948706531E+01   -1.7547363394928272E+01
N   -9.0580385593915622E+00    1.5270976923179132E+01   -1.7519125629406414E+01
N   -6.9110056769101815E+00    1.6487083969137217E+01   -1.7862825192090892E+01
N   -9.1118397307015453E+00    1.7738455578536165E+01   -1.7879576721208149E+01
N   -6.8896517103876906E+00    1.9095393137708253E+01   -1.7838159656607875E+01
N   -9.0668798898305205E+00    2.0345979765953686E+01   -1.8002531588914557E+01
N   -6.9078544965735631E+00    2.1567004964852124E+01   -1.7957789474410138E+01
N   -9.0273791190257580E+00    2.2873822751421265E+01   -1.7873111261441064E+01
N   -6.8745793657689269E+00    2.4095211546408365E+01   -1.7589674313225451E+01
B   -1.9285637373289916E+01    2.5391510285506634E+01   -1.7367319813504764E+01
B   -1.7038490120715892E+01    2.6590308954562914E+01   -1.7286428502341792E+01
B   -1.9225073769333111E+01    2.7882290584391942E+01   -1.7235824969700332E+01
B   -1.7101514187815841E+01    2.9184970798674538E+01   -1.7030552898321510E+01
B   -1.9252369173715753E+01    3.0386778644582069E+01   -1.7088548216976228E+01
B   -1.7103546856363565E+01    3.1704694183518480E+01   -1.7018290966967278E+01
B   -1.9283694319732195E+01    3.2922738875635837E+01   -1.7211178911607831E+01
B   -1.7063987666598919E+01    3.4130332354725631E+01   -1.7081368480910871E+01
B   -1.9267392951770194E+01    3.5412303499863171E+01   -1.7318448233935886E+01
B   -1.7035491013973235E+01    3.6670019430310909E+01   -1.7185241611498576E+01
B   -1.4822207742503984E+01    2.5336341760858286E+01   -1.7364566930527008E+01
B   -1.2683969476047560E+01    2.6640666451112502E+01   -1.7199714315776674E+01
B   -1.4905929662255160E+01    2.7889327584340712E+01   -1.7250645347482610E+01
B   -1.2694229215941636E+01    2.9080716842771970E+01   -1.7150476331377355E+01
B   -1.4922287090581106E+01    3.0405425200367883E+01   -1.7136843996729414E+01
B   -1.2703872453596500E+01    3.1619696171137655E+01   -1.6986074300974934E+01
B   -1.4851361215955794E+01    3.2932680349493936E+01   -1.6965472245602587E+01
B   -1.2675824997531365E+01    3.4147635247202970E+01   -1.6941819841242150E+01
B   -1.4929066424697231E+01    3.5393502509403206E+01   -1.7016314650880343E+01
B   -1.2740001966661383E+01    3.6616757356482864E+01   -1.6989287799498044E+01
B   -1.0480189926404565E+01    2.5370038941114178E+01   -1.7419993815545610E+01
B   -8.3500068186955403E+00    2.6637511220084470E+01   -1.7182873655112321E+01
B   -1.0539282319874571E+01    2.7872207832655008E+01   -1.7124538743317871E+01
B   -8.3640068747555247E+00    2.9173935740134368E+01   -1.7101670066760924E+01
B   -1.0591201912616572E+01    3.0357734611966734E+01   -1.6974789316936072E+01
B   -8.3710214336994717E+00    3.1591794940290711E+01   -1.7043223339679109E+01
B   -1.0491799401278513E+01    3.2872898108021111E+01   -1.7027043930099584E+01
B   -8.3389451427724044E+00    3.4144808439981986E+01   -1.7052441615365392E+01
B   -1.0563830638310245E+01    3.5378881259689116E+01   -1.6994958352800374E+01
B   -8.3379067703699814E+00    3.6639485183650976E+01   -1.7167745909682655E+01
N   -1.7770124543164677E+01    2.5365437986360366E+01   -1.7468307293498007E+01
N   -1.5576958264720618E+01    2.6553425888885297E+01   -1.7222155243462510E+01
N   -1.7798762978761115E+01    2.7851221906651087E+01   -1.7135218096166163E+01
N   -1.5648996149028033E+01    2.9107635210361739E+01   -1.7073983641214227E+01
N   -1.7810950660736516E+01    3.0409185402619702E+01   -1.7038024223855455E+01
N   -1.5632033194962474E+01    3.1691061461767561E+01   -1.7004893833313105E+01
N   -1.7858070694566702E+01    3.2941507586048509E+01   -1.7102734892060205E+01
N   -1.5645591515171214E+01    3.4135554848156936E+01   -1.7067432934727929E+01
N   -1.7783854378687845E+01    3.5419719170694698E+01   -1.7185638164463864E+01
N   -1.5597183458736167E+01    3.6664045934874871E+01   -1.7009117496980174E+01
N   -1.3387676487564642E+01    2.5404285764944973E+01   -1.7372748447617656E+01
N   -1.1245887932137109E+01    2.6623224155994954E+01   -1.7193015254493833E+01
N   -1.3469554492823859E+01    2.7874491679022199E+01   -1.7252169742513640E+01
N   -1.1275386562810645E+01    2.9079993654634364E+01   -1.6869525718648173E+01
N   -1.3415481793799406E+01    3.0352086838247839E+01   -1.7120156978416990E+01
N   -1.1268973358746328E+01    3.1650398523355129E+01   -1.7036443978166208E+01
N   -1.3425317004419338E+01    3.2913569095856033E+01   -1.6986858389026185E+01
N   -1.1209974065310375E+01    3.4118951039056675E+01   -1.6960134664224235E+01
N   -1.3476525636191559E+01    3.5376487558378543E+01   -1.6875369285872608E+01
N   -1.1305405015994408E+01    3.6609662523194302E+01   -1.7014298450876126E+01
N   -9.0437338547373383E+00    2.5408719876120955E+01   -1.7396599280952334E+01
N   -6.8830750066501940E+00    2.6648875086763972E+01   -1.7209302905904824E+01
N   -9.0580837678678350E+00    2.7899352015292457E+01   -1.7030924266183892E+01
N   -6.9204248559230326E+00    2.9136876523135417E+01   -1.7283830357018196E+01
N   -9.0817186017886975E+00    3.0395863358869967E+01   -1.7033335317337642E+01
N   -6.9159255785235301E+00    3.1638370837536620E+01   -1.7186617150756927E+01
N   -9.0689984838604261E+00    3.2886750402474313E+01   -1.7019231703461127E+01
N   -6.9089942875246049E+00    3.4150675387213361E+01   -1.7162543207373144E+01
N   -9.1332018817487395E+00    3.5405338536834819E+01   -1.7020796766287678E+01
N   -6.9121305481998316E+00    3.6675005223198355E+01   -1.7209967570564888E+01
B   -6.1607491320199124E+00    1.2790341280637840E+01   -1.7460632645083695E+01
B   -4.0418549915358186E+00    1.4076313014510898E+01   -1.7631972556796327E+01
B   -6.1716628943935499E+00    1.5274184606087658E+01   -1.7740025764014383E+01
B   -3.9609450409905702E+00    1.6558862380269794E+01   -1.7698790072147524E+01
B   -6.1828351478409420E+00    1.7796009532590837E+01   -1.7916613157418873E+01
B   -4.0250838762980861E+00    1.9096464820309503E+01   -1.7802072224630898E+01
B   -6.1801225095776831E+00    2.0322214869438959E+01   -1.7870622535979475E+01
B   -4.0296388488158046E+00    2.1606960162994856E+01   -1.7888512114072778E+01
B   -6.2489442715667289E+00    2.2860001751362038E+01   -1.7840043607762173E+01
B   -4.0361978320356346E+00    2.4151598212227150E+01   -1.7758795480067214E+01
B   -1.8486534605475542E+00    1.2827294990985928E+01   -1.7711344675266854E+01
B    3.2838769626441017E-01    1.4086830860525650E+01   -1.7888087516107362E+01
B   -1.8262711886166751E+00    1.5304448012029054E+01   -1.7817119090243658E+01
B    3.1310674999086469E-01    1.6571401024362245E+01   -1.8099980095777653E+01
B   -1.7864504384245710E+00    1.7852131579838058E+01   -1.7817681197500779E+01
B    3.5817789908633985E-01    1.9086486923506985E+01   -1.7920036042390411E+01
B   -1.8168172032058236E+00    2.0355847604154789E+01   -1.7797156474441671E+01
B    3.1759916424684348E-01    2.1690488251742668E+01   -1.7747673447344042E+01
B   -1.9022203032690916E+00    2.2884861312194023E+01   -1.7769723689120685E+01
B    3.2135289261493272E-01    2.4119171897486204E+01   -1.7643440946655790E+01
B    2.4763203916392076E+00    1.2818199669999325E+01   -1.7636776531893901E+01
B    4.6765899355040466E+00    1.4056683353466843E+01   -1.7641722208161170E+01
B    2.5137938367076629E+00    1.5381449892709073E+01   -1.7849848064903899E+01
B    4.6658153090428041E+00    1.6583021638367480E+01   -1.7832329016275654E+01
B    2.5181709972602215E+00    1.7804337053080204E+01   -1.8021151805972618E+01
B    4.6974134639236098E+00    1.9080983111100309E+01   -1.7773238327233447E+01
B    2.4901493743873400E+00    2.0334560077894405E+01   -1.7952463590582017E+01
B    4.6769781145989624E+00    2.1543531300086752E+01   -1.7779369146594178E+01
B    2.5419470265898454E+00    2.2808166506435640E+01   -1.7697378111356926E+01
B    4.6883081645743525E+00    2.4137347592419761E+01   -1.7548285766171226E+01
N   -4.7324368200992444E+00    1.2800877820238805E+01   -1.7495336064029761E+01
N   -2.5770214625212913E+00    1.4073051503465962E+01   -1.7785688735541072E+01
N   -4.6844940479687818E+00    1.5290462536730253E+01   -1.7780000758972964E+01
N   -2.4918934458841902E+00    1.6599521627487523E+01   -1.7671674652185640E+01
N   -4.7189605820566554E+00    1.7817414960204925E+01   -1.7821117256145296E+01
N   -2.5721712737518474E+00    1.9105629587027760E+01   -1.7847460010170725E+01
N   -4.7088155252686059E+00    2.0327799925484459E+01   -1.7830175646688250E+01
N   -2.5538010611062978E+00    2.1626102672944445E+01   -1.7830424812328772E+01
N   -4.7672054570154927E+00    2.2872438162195930E+01   -1.7902617669375246E+01
N   -2.5922343134877619E+00    2.4154575762267498E+01   -1.7788940952388145E+01
N   -3.9003473476117301E-01    1.2823041468324444E+01   -1.7770528541867428E+01
N    1.7564868722275622E+00    1.4119042408263409E+01   -1.7711666138509376E+01
N   -4.0403169504707875E-01    1.5344921781970724E+01   -1.8048621523574795E+01
N    1.8063227085577533E+00    1.6589717665700221E+01   -1.8099131591504506E+01
N   -3.5062950004041871E-01    1.7843017300762462E+01   -1.8013620934477725E+01
N    1.8007102668789665E+00    1.9103503272925263E+01   -1.8067175717489253E+01
N   -4.1814396299049039E-01    2.0340363182174663E+01   -1.7728292075108580E+01
N    1.7792345799280478E+00    2.1635091489421399E+01   -1.7819078942881220E+01
N   -4.0877187936166948E-01    2.2870597012283099E+01   -1.7799968155068946E+01
N    1.7962612312613058E+00    2.4061339703984896E+01   -1.7534119934226453E+01
N    3.9295284819165435E+00    1.2851703213050419E+01   -1.7627190233875570E+01
N    6.0855720532634319E+00    1.4066795602206321E+01   -1.7642082241920487E+01
N    3.9467811022515078E+00    1.5295596995474751E+01   -1.7721140307492892E+01
N    6.1050766464390689E+00    1.6618251340453053E+01   -1.7736266987560629E+01
N    3.9524485731936037E+00    1.7824023382755332E+01   -1.7956360465729851E+01
N    6.1423117515892693E+00    1.9097709735144637E+01   -1.7572736815768351E+01
N    3.9589399018653575E+00    2.0338421413177212E+01   -1.7868361503873331E+01
N    6.1446768805878644E+00    2.1544406512201345E+01   -1.7676645598498183E+01
N    3.9846970332705469E+00    2.2847644393860438E+01   -1.7783943849021689E+01
N    6.1197085963688416E+00    2.4107861404839205E+01   -1.7576723961147025E+01
B   -6.1733960323223904E+00    2.5413252881202538E+01   -1.7491987550882463E+01
B   -4.0420210481807990E+00    2.6633513383077627E+01   -1.7453318699116799E+01
B   -6.1604421664043469E+00    2.7902318486043473E+01   -1.7242181599623972E+01
B   -4.0389361048728851E+00    2.9158501855604019E+01   -1.7380533640257475E+01
B   -6.1934902120586424E+00    3.0344932140073148E+01   -1.7336582596114312E+01
B   -4.0314614985081549E+00    3.1612462715123687E+01   -1.7365518238929141E+01
B   -6.1760337532138250E+00    3.2877798138190649E+01   -1.7306053317764047E+01
B   -4.0153315218594754E+00    3.4153294691892903E+01   -1.7361822214288349E+01
B   -6.2149460703022212E+00    3.5451546287932459E+01   -1.7187499503269763E+01
B   -4.0134362186350705E+00    3.6633005068641218E+01   -1.7486138338725162E+01
B   -1.8326522146490360E+00    2.5427147752630233E+01   -1.7627167941709558E+01
B    2.9927718329059133E-01    2.6622300083828605E+01   -1.7244095204364264E+01
B   -1.8793838138336290E+00    2.7862528957427479E+01   -1.7231407886498445E+01
B    2.3302814653525236E-01    2.9143608555293895E+01   -1.7322665081748756E+01
B   -1.8905300022002753E+00    3.0369204061494965E+01   -1.7322272135120979E+01
B    3.0878110321232477E-01    3.1674726607448026E+01   -1.7306156646239852E+01
B   -1.8930805351701951E+00    3.2867479345256193E+01   -1.7302144775711987E+01
B    3.4199304666047869E-01    3.4140602896483685E+01   -1.7419820407778182E+01
B   -1.8023831545970563E+00    3.5388617906412492E+01   -1.7535149138114267E+01
B    3.1026384845221955E-01    3.6617611301116220E+01   -1.7660282155460344E+01
B    2.5169301934185540E+00    2.5337920935805034E+01   -1.7425792904264796E+01
B    4.6343363512534443E+00    2.6632924120144398E+01   -1.7400901513309371E+01
B    2.4866563974643898E+00    2.7913644284567063E+01   -1.7363157025765869E+01
B    4.6938687072487992E+00    2.9157470991416648E+01   -1.7229422410578501E+01
B    2.4595563276683170E+00    3.0385719344928248E+01   -1.7337844341830422E+01
B    4.6654166053585371E+00    3.1647456578696250E+01   -1.7290016787119971E+01
B    2.4971783938587140E+00    3.2905144757795888E+01   -1.7355421162299258E+01
B    4.6296411738221686E+00    3.4182336165373336E+01   -1.7453838484518641E+01
B    2.4742887879475548E+00    3.5400774237462720E+01   -1.7510057721417176E+01
B    4.6548888723767758E+00    3.6685107408220738E+01   -1.7526441093202287E+01
N   -4.7508105490583370E+00    2.5378432571149382E+01   -1.7625442061895789E+01
N   -2.5770719195796272E+00    2.6633568067103099E+01   -1.7518810962932747E+01
N   -4.7495365170084094E+00    2.7887816783700050E+01   -1.7337584692954380E+01
N   -2.6257221144333780E+00    2.9120864643747471E+01   -1.7210523465939971E+01
N   -4.7951556956221708E+00    3.0386279648511007E+01   -1.7453724514145367E+01
N   -2.5747016341277300E+00    3.1620424658822039E+01   -1.7256430660910905E+01
N   -4.7259702672272157E+00    3.2856620090365801E+01   -1.7353999228332679E+01
N   -2.5185813707392519E+00    3.4159417908629415E+01   -1.7441348060877495E+01
N   -4.7123610245736032E+00    3.5475607272304032E+01   -1.7228636047631216E+01
N   -2.5285511131198639E+00    3.6675161308365624E+01   -1.7707458423620231E+01
N   -4.1362704338685263E-01    2.5417019207490483E+01   -1.7570727036881166E+01
N    1.7642734867089138E+00    2.6614912211316987E+01   -1.7283956300872120E+01
N   -4.7739200242581487E-01    2.7916350690491875E+01   -1.7134433441328277E+01
N    1.7239361811306577E+00    2.9113684364212144E+01   -1.7383273930908477E+01
N   -4.1482996211729067E-01    3.0402574712178541E+01   -1.7354002006025425E+01
N    1.7627073499458101E+00    3.1644421144881981E+01   -1.7167264006673268E+01
N   -4.1271401866898283E-01    3.2907407635969328E+01   -1.7252516021918964E+01
N    1.7741008095110891E+00    3.4116170220307218E+01   -1.7461038356065671E+01
N   -3.5212438275401747E-01    3.5378451673626628E+01   -1.7563166863739667E+01
N    1.7262882594557440E+00    3.6654802840003853E+01   -1.7541733970903209E+01
N    3.9125622498735182E+00    2.5363480700144127E+01   -1.7403376580272674E+01
N    6.0859829029136838E+00    2.6660812556234085E+01   -1.7331853952591008E+01
N    3.9150459187954496E+00    2.7907569587235677E+01   -1.7392457116558436E+01
N    6.1246731110483106E+00    2.9151480035677697E+01   -1.7089920664291739E+01
N    3.9381518768594370E+00    3.0399126271306216E+01   -1.7359020409414516E+01
N    6.1119798606013314E+00    3.1649255118385398E+01   -1.7070516521306484E+01
N    3.9209070427463764E+00    3.2893742505097897E+01   -1.7360177136848097E+01
N    6.0888951100045032E+00    3.4157688311896251E+01   -1.7456075663425008E+01
N    3.9376969520154299E+00    3.5444365501336222E+01   -1.7567582791686839E+01
N    6.0948895289372063E+00    3.6672821508201693E+01   -1.7412928455333319E+01
O   -5.3083360469547898E+01    2.0727822425487954E+01   -1.7604019069361629E+00
H   -5.3976581367127984E+01    2.0412593429099946E+01   -2.0607019089948273E+00
H   -5.2507890376953661E+01    1.9917800790533249E+01   -1.6113443536330210E+00
O    1.4007247444080946E+01   -4.9201838110500216E+00    2.3562770668162165E+00
H    1.4527831511142635E+01   -4.8197691688517112E+00    3.1402396113822397E+00
H    1.3949536436018636E+01   -5.9182369607114858E+00    2.1395566671575286E+00
O    9.5214921477365344E+00    7.5614849945192448E+00   -7.3819053064552591E+00
H    9.8177682409401008E+00    6.8821136077817178E+00   -6.7390214820808279E+00
H    9.3868127306829336E+00    8.3852416427858358E+00   -6.8190446787409673E+00
O    4.8969911832927968E+00    9.7976820452529523E+01   -5.2282197597480664E+00
H    4.8583231032429364E+00    9.8394830094418850E+01   -6.0876469226996965E+00
H    5.3762908742883422E+00    9.7143532337242874E+01   -5.4427271873514016E+00
O    3.1057887775702997E+00    1.3254591016683211E+01   -1.1775037224917211E+01
H    4.0571017036485433E+00    1.3310610948649773E+01   -1.1583932683585438E+01
H    2.5238436937195301E+00    1.3968301231988272E+01   -1.1333977972852260E+01
O   -4.0235601060075759E+01    3.5627921935961247E+01   -1.1773990232853120E+00
H   -4.0318857533952020E+01    3.4736219037785659E+01   -1.5448292770941536E+00
H   -4.1027846364651062E+01    3.5868411456587246E+01   -6.1303772848202398E-01
O    6.8282554883536690E+01    4.5253840345806367E+01    5.1648822336109146E-01
H    6.7647731471286747E+01    4.5350064591160042E+01    1.2441478799538765E+00
H    6.8460324265205898E+01    4.6173566425385907E+01    2.5309265343777909E-01
O   -2.0290000240693910E+01    4.1996157590056640E+01   -4.3389348615370060E-01
H   -1.9910007457947138E+01    4.2949730250363267E+01   -3.2547079751996660E-01
H   -1.9578513484690564E+01    4.1420577472769914E+01    6.3337032387134258E-04
O    1.3714882730539395E+01    5.1066240627383962E+01   -4.0194731846512965E+00
H    1.3264346406690761E+01    5.1898414026105954E+01   -3.7788104657240802E+00
H    1.3241401293181568E+01    5.0291911004608806E+01   -3.5452195708170713E+00
O    1.1007461704432819E+01    3.2367517949797467E+01   -1.0946726670242699E+01
H    1.0909623075496276E+01    3.3289115458522097E+01   -1.0691695328738405E+01
H    1.1964906144894856E+01    3.2099886498610871E+01   -1.0751959066790791E+01
O   -4.3575750252173799E+00    6.8812638634129314E+01   -1.3276339985389372E+01
H   -3.5510568231469870E+00    6.8540320839892473E+01   -1.3800736913286649E+01
H   -4.7776464891431463E+00    6.9601887931814929E+01   -1.3770065762824464E+01
O    5.5673043796904169E+00    1.0833297930827226E+02   -5.3232851498137297E+00
H    5.2737286492587518E+00    1.0826830411750164E+02   -4.3326891368593010E+00
H    5.7204701879900064E+00    1.0926510123052759E+02   -5.6563905834246739E+00
O   -3.4112078933124039E+01    3.0484908801736108E+01   -6.1735881763620872E+00
H   -3.4937324584975116E+01    3.0061831651739531E+01   -5.6764842747857891E+00
H   -3.3386441604673664E+01    3.0617833562160683E+01   -5.5224798678439715E+00
O    5.8262921885348504E+01   -1.5914200950477916E+01   -1.5186712473103536E+00
H    5.7917018207827248E+01   -1.6798222497746881E+01   -1.8083873515739817E+00
H    5.8793202509326953E+01   -1.6111668417113858E+01   -7.3789175579779565E-01
O    2.6702425553466572E+01    4.2854923440299807E+01   -1.5198997350664920E+01
H    2.5743362203274167E+01    4.3100686709510427E+01   -1.5263610484421307E+01
H    2.6556364167426118E+01    4.1851759599136003E+01   -1.4904713675801949E+01
O    1.5888610593419715E+01    8.3355907632032959E+00    3.5761098592478757E-01
H    1.6382887261149740E+01    8.4906833942789444E+00    1.2354472879726759E+00
H    1.6461252286740581E+01    8.9094569301878686E+00   -1.7582475465815584E-01
O    2.5515057489992053E+01    8.7476296818884123E+01   -1.1828046764330558E+00
H    2.6236490752460742E+01    8.7607773501447483E+01   -5.4794978879903822E-01
H    2.4696802801803223E+01    8.7388433411669951E+01   -7.0406771256429790E-01
O   -4.9832818998818027E+01   -2.6003890514591124E+01   -5.9776795336047135E+00
H   -5.0251000420092637E+01   -2.6464630355720214E+01   -6.7680020562505767E+00
H   -5.0450772036840469E+01   -2.5265380360015399E+01   -5.6860866690256699E+00
O   -5.3105234705742127E+01    3.7812375053293039E+01   -1.1727677029549584E+01