 # Version information for this restart file 
 # current date 2019-02-04 11:55:21.855
 # current working dir /scratch/snx3000/gtocci/gtocci/MEMBRANES/AIMD_US_IONS_GRA/potassium/aimd_us_pot/us_19
 # Program compiled at                             Thu Oct 11 21:49:41 CEST 2018
 # Program compiled on                                                  daint104
 # Program compiled for                                   CRAY_XC50-gfortran_gpu
 # Source code revision number                                     git:be74c20a5
 &GLOBAL
   PRINT_LEVEL  LOW
   PROJECT_NAME GRAS
   RUN_TYPE  MD
   WALLTIME 10200
 &END GLOBAL
 &MOTION
   &MD
     ENSEMBLE  NVT
     STEPS  100000
     TIMESTEP     9.9999999999999989E-01
     STEP_START_VAL  45661
     TIME_START_VAL     4.5660999999983076E+04
     ECONS_START_VAL    -8.3207031471020600E+03
     TEMPERATURE     3.0000000000000000E+02
     TEMP_KIND  T
     &BAROSTAT
       PRESSURE     1.0000000000000000E+00
       TIMECON     9.9999999999999986E+01
       VIRIAL  Z
     &END BAROSTAT
     &THERMOSTAT
       TYPE  NOSE
       REGION  GLOBAL
       &NOSE
         LENGTH  4
         TIMECON     9.9999999999999986E+01
         MTS  2
         &COORD
               1.3124574603161543E-01    3.0688839893537370E+01   -7.8079213981551154E+00   -1.2512361453910881E+00
         &END COORD
         &VELOCITY
              -5.1857560436482526E-07    3.2967889903395272E-04   -2.0516049878289942E-04   -2.7844255025484762E-05
         &END VELOCITY
         &MASS
               7.0145132684705392E+07    1.6237299232570693E+04    1.6237299232570693E+04    1.6237299232570693E+04
         &END MASS
         &FORCE
               6.8112327894308285E-10   -5.7348276609954143E-08    5.0178162618134132E-08   -1.6419183589256997E-08
         &END FORCE
       &END NOSE
     &END THERMOSTAT
     &AVERAGES  T
       &RESTART_AVERAGES
         ITIMES_START  1
         AVECPU     5.0356574678635539E+01
         AVEHUGONIOT     0.0000000000000000E+00
         AVETEMP_BARO     0.0000000000000000E+00
         AVEPOT    -8.3232546153260173E+03
         AVEKIN     2.0552657823574205E+00
         AVETEMP     3.0046334665319517E+02
         AVEKIN_QM     0.0000000000000000E+00
         AVETEMP_QM     0.0000000000000000E+00
         AVEVOL     2.1331414786627726E+05
         AVECELL_A     4.8437460238124224E+01
         AVECELL_B     4.6608961231945408E+01
         AVECELL_C     9.4486306644279736E+01
         AVEALPHA     9.0000000000000043E+01
         AVEBETA     9.0000000000000043E+01
         AVEGAMMA     9.0000000000000043E+01
         AVE_ECONS    -2.5685483428681661E+00
         AVE_PRESS     0.0000000000000000E+00
         AVE_PXX     0.0000000000000000E+00
       &END RESTART_AVERAGES
     &END AVERAGES
     &PRINT
       &TEMP_KIND  SILENT
       &END TEMP_KIND
     &END PRINT
   &END MD
   &FREE_ENERGY
     &METADYN
       MIN_DISP    -1.0000000000000000E+00
       OLD_HILL_NUMBER  0
       OLD_HILL_STEP  0
       DO_HILLS  F
       STEP_START_VAL  45661
       NHILLS_START_VAL  0
       &METAVAR
         SCALE     1.0000000000000000E+00
         COLVAR  1
       &END METAVAR
       &PRINT
         &COLVAR  SILENT
           COMMON_ITERATION_LEVELS  3
           &EACH
             MD  1
           &END EACH
         &END COLVAR
       &END PRINT
     &END METADYN
   &END FREE_ENERGY
   &CONSTRAINT
     &COLLECTIVE
       COLVAR  1
       INTERMOLECULAR  T
       &RESTRAINT
         K     4.4625385281452931E-04
       &END RESTRAINT
     &END COLLECTIVE
     &COLVAR_RESTART
           1.7952398262413613E+01
     &END COLVAR_RESTART
   &END CONSTRAINT
   &PRINT
     &TRAJECTORY  SILENT
       &EACH
         MD  1
       &END EACH
     &END TRAJECTORY
     &VELOCITIES  SILENT
       &EACH
         MD  1
       &END EACH
     &END VELOCITIES
     &FORCES  SILENT
       UNIT eV*angstrom^-1
       &EACH
         MD  1
       &END EACH
     &END FORCES
     &RESTART  SILENT
       &EACH
         MD  1
       &END EACH
     &END RESTART
     &RESTART_HISTORY  SILENT
       &EACH
         MD  100
       &END EACH
     &END RESTART_HISTORY
   &END PRINT
 &END MOTION
 &FORCE_EVAL
   METHOD  QS
   &DFT
     BASIS_SET_FILE_NAME /users/gtocci/scratch_daint_3000/data_cp2k//BASIS_MOLOPT
     POTENTIAL_FILE_NAME /users/gtocci/scratch_daint_3000/data_cp2k//GTH_POTENTIALS
     WFN_RESTART_FILE_NAME ./GRAS-RESTART.wfn
     CHARGE  1
     &SCF
       MAX_SCF  10
       EPS_SCF     9.9999999999999995E-07
       SCF_GUESS  RESTART
       &OT  T
         MINIMIZER  DIIS
         PRECONDITIONER  FULL_KINETIC
       &END OT
       &OUTER_SCF  T
         EPS_SCF     9.9999999999999995E-07
         MAX_SCF  30
       &END OUTER_SCF
       &PRINT
         &RESTART  SILENT
           ADD_LAST  NUMERIC
           &EACH
             QS_SCF  50
           &END EACH
         &END RESTART
       &END PRINT
     &END SCF
     &QS
       MAP_CONSISTENT  T
       EXTRAPOLATION  ASPC
       EXTRAPOLATION_ORDER  4
     &END QS
     &MGRID
       NGRIDS  5
       CUTOFF     4.6000000000000000E+02
     &END MGRID
     &XC
       DENSITY_CUTOFF     1.0000000000000000E-10
       GRADIENT_CUTOFF     1.0000000000000000E-10
       TAU_CUTOFF     1.0000000000000000E-10
       &XC_GRID
         XC_DERIV  SPLINE2_SMOOTH
       &END XC_GRID
       &XC_FUNCTIONAL  NO_SHORTCUT
         &LIBXC  T
           FUNCTIONAL XC_GGA_X_OPTB88_VDW
         &END LIBXC
         &VWN  T
         &END VWN
       &END XC_FUNCTIONAL
       &VDW_POTENTIAL
         POTENTIAL_TYPE  NON_LOCAL
         &NON_LOCAL
           TYPE  DRSLL
           VERBOSE_OUTPUT  T
           KERNEL_FILE_NAME /users/gtocci/scratch_daint_3000/data_cp2k//vdW_kernel_table.dat
         &END NON_LOCAL
       &END VDW_POTENTIAL
     &END XC
     &REAL_TIME_PROPAGATION
       INITIAL_WFN  SCF_WFN
     &END REAL_TIME_PROPAGATION
     &PRINT
       &MULLIKEN  SILENT
         FILENAME =GRAS.mulliken
       &END MULLIKEN
     &END PRINT
   &END DFT
   &SUBSYS
     &CELL
       A     2.5632000000000001E+01    0.0000000000000000E+00    0.0000000000000000E+00
       B     0.0000000000000000E+00    2.4664400000000022E+01    0.0000000000000000E+00
       C     0.0000000000000000E+00    0.0000000000000000E+00    5.0000000000000028E+01
       MULTIPLE_UNIT_CELL  1 1 1
     &END CELL
     &COORD
C    1.8478369869390334E+00    1.2268019623542290E+00    3.0377148333430362E+00
C    3.2559425486143274E+00    1.2351302176039256E+00    2.9608653781495655E+00
C    3.9625130131869502E+00    2.5005343197839967E+00    2.8840026178189135E+00
C    5.3553625389808932E+00    2.4833466455701672E+00    2.9302701242061251E+00
C    1.8128683292722145E+00    3.6628007615499083E+00    2.9573558101293003E+00
C    3.2724769633981690E+00    3.7078245112578574E+00    2.9191509096445967E+00
C    3.9627128241423724E+00    4.9457731225246331E+00    2.9508799933305832E+00
C    5.3890820740493641E+00    4.9880101682641778E+00    2.9097972668234537E+00
C    1.7809095351615469E+00    6.1804946563126286E+00    2.8592446672311667E+00
C    3.2313869292267601E+00    6.1935017165620554E+00    2.9143080612473393E+00
C    3.9067854532909836E+00    7.4407528009843844E+00    2.8733545037320356E+00
C    5.3725894488410617E+00    7.4980022300199094E+00    2.9461124500393652E+00
C    1.7824420074881069E+00    8.6614543826239743E+00    2.9006794586429483E+00
C    3.2133062419480098E+00    8.6940623602502392E+00    2.9735387446669401E+00
C    3.9616195677847155E+00    9.9117495730526404E+00    3.0564978392657443E+00
C    5.3860313746505399E+00    9.9431253019502179E+00    3.0153185163886747E+00
C    1.7935323190269725E+00    1.1112375896429118E+01    2.9751215504088284E+00
C    3.2327860667345871E+00    1.1134458850865904E+01    3.0366951746264608E+00
C    3.9599224141111220E+00    1.4235423636569770E-03    3.0042278182456559E+00
C    5.3444068140684902E+00    6.4977517858409786E-02    2.9142754185608934E+00
C    6.0498367865283189E+00    1.2798086427800897E+00    2.9669618089678731E+00
C    7.4718290160454410E+00    1.2607785678528169E+00    2.9619084350703377E+00
C    8.2109795291495935E+00    2.4994249039916596E+00    2.9735930261178867E+00
C    9.6220267816073441E+00    2.5286625572078174E+00    3.0658052933446767E+00
C    6.0612033643370857E+00    3.7593602500163579E+00    2.9801778607406453E+00
C    7.5056896937699777E+00    3.7493020978154670E+00    2.9410840555069555E+00
C    8.2444539279986309E+00    4.9915037587592677E+00    3.0032750339727334E+00
C    9.6698305570309877E+00    5.0099318533717474E+00    3.0759456641784215E+00
C    6.0883809477129240E+00    6.2715550059248555E+00    2.8806235711597257E+00
C    7.5077861971720239E+00    6.2236967044929310E+00    2.9846171740497276E+00
C    8.2206214329186249E+00    7.4593465414805973E+00    3.0854394283666644E+00
C    9.6242886624999464E+00    7.4677289419038155E+00    3.1491041820550971E+00
C    6.0879871305368196E+00    8.7232522451491459E+00    3.0281238932556929E+00
C    7.5299913481435699E+00    8.6804704491694071E+00    3.1256035644319353E+00
C    8.1753693836408630E+00    9.9235555687760382E+00    3.2430983556577435E+00
C    9.6225682708807643E+00    9.9398338930988466E+00    3.3891194169333012E+00
C    6.0807693620029557E+00    1.1185644631059464E+01    3.1088105854543935E+00
C    7.5119803014965925E+00    1.1167928660341374E+01    3.2294757988398173E+00
C    8.2128809492199455E+00    4.5999739820220376E-02    3.1016069149642345E+00
C    9.6188719658551030E+00    5.4269385238515419E-02    3.1386391617506630E+00
C    1.0306004257715003E+01    1.3041011522310848E+00    3.1710091979468684E+00
C    1.1732193139468231E+01    1.2872062101002317E+00    3.2517232112074694E+00
C    1.2481233578761518E+01    2.5020553008651887E+00    3.3157758507799255E+00
C    1.3920817968053351E+01    2.5047083965405350E+00    3.5214111027853821E+00
C    1.0369202219605077E+01    3.7522869420121840E+00    3.0380712502900984E+00
C    1.1798170659251577E+01    3.7453498607348079E+00    3.1895350545358134E+00
C    1.2518929941414585E+01    4.9573602816289899E+00    3.2685634584289160E+00
C    1.3907003829697578E+01    4.9869869888897185E+00    3.5274121200919808E+00
C    1.0379717387449098E+01    6.2417353889906773E+00    3.1472176855106335E+00
C    1.1798421877002001E+01    6.2129184659225567E+00    3.2088710840504708E+00
C    1.2482541432015754E+01    7.4592423941394825E+00    3.3746743951971987E+00
C    1.3937815958661362E+01    7.4448743004157629E+00    3.4699874270095372E+00
C    1.0345833048352382E+01    8.6801793394460773E+00    3.3565250704364233E+00
C    1.1734971049076783E+01    8.6724239549467459E+00    3.4113159395098167E+00
C    1.2455778216140434E+01    9.9055125799283505E+00    3.4327948091292906E+00
C    1.3876079321427788E+01    9.9187151800727360E+00    3.4739542675426889E+00
C    1.0286850780137915E+01    1.1140515961943867E+01    3.4131782757162203E+00
C    1.1721958054827386E+01    1.1133337226430264E+01    3.4669202305779838E+00
C    1.2477904607580854E+01    5.8023655677742210E-02    3.2372906677855755E+00
C    1.3931954240401305E+01    2.9894598799930179E-02    3.3035993339834788E+00
C    1.7781979851271901E+00    1.3566046027069135E+01    3.1086463391504400E+00
C    3.2217625087345785E+00    1.3588531164195180E+01    3.1491453234864148E+00
C    3.9390144967276095E+00    1.4842970012938263E+01    3.2707058822644095E+00
C    5.3411083887267727E+00    1.4854669429965885E+01    3.3414668387351107E+00
C    1.7599417435138383E+00    1.6029113695862648E+01    3.1953293736643986E+00
C    3.1992401464505913E+00    1.6043770166905176E+01    3.2946695529569410E+00
C    3.9568839521395822E+00    1.7266146681145969E+01    3.2889924845718617E+00
C    5.3618925105394064E+00    1.7305197948628070E+01    3.3152331816352780E+00
C    1.7823649357817026E+00    1.8512922260245603E+01    3.3700275441380243E+00
C    3.2237355108699446E+00    1.8518992737042129E+01    3.3299381835162118E+00
C    3.9176856931800037E+00    1.9746721399122283E+01    3.1016530964945281E+00
C    5.3708148503903823E+00    1.9751981030924949E+01    3.0359775903315005E+00
C    1.8480329980371453E+00    2.0970028519441666E+01    3.3478007649242514E+00
C    3.2403452746814487E+00    2.0982062243461847E+01    3.1801667613480218E+00
C    3.9247890772164777E+00    2.2203018182574713E+01    3.0843349239275906E+00
C    5.3428422281426933E+00    2.2223316953934638E+01    2.9100227780275878E+00
C    1.8169665153708459E+00    2.3465802119141554E+01    3.2745950499049834E+00
C    3.2591233365394099E+00    2.3441466375079493E+01    3.1637338688298340E+00
C    3.9071244672054299E+00    1.2369037814060276E+01    3.0855627527288156E+00
C    5.3528800101382590E+00    1.2406276958802783E+01    3.2156947118388950E+00
C    6.0430887616456497E+00    1.3626186242417736E+01    3.3081880265566808E+00
C    7.4682136335921214E+00    1.3618228045816709E+01    3.4388222829080868E+00
C    8.2025648433556313E+00    1.4874239046541620E+01    3.5756607674662488E+00
C    9.6069889295171418E+00    1.4845046073980257E+01    3.5247737071391225E+00
C    6.0723718388228578E+00    1.6100647963734680E+01    3.4425062241176012E+00
C    7.5050987266862794E+00    1.6083846412276962E+01    3.4915881309615968E+00
C    8.2255721194426581E+00    1.7318195952910280E+01    3.4339183271733686E+00
C    9.6346963158891921E+00    1.7320167316099337E+01    3.4247701423496340E+00
C    6.1022931720572977E+00    1.8542781422025591E+01    3.1873992007812828E+00
C    7.5003540187285607E+00    1.8549460004335316E+01    3.2477197832178373E+00
C    8.1709971235954129E+00    1.9797512321444302E+01    3.2327296251658031E+00
C    9.6224130367974325E+00    1.9810486495556688E+01    3.3531265884099306E+00
C    6.0475839744085222E+00    2.0991133583482810E+01    2.9746142586308162E+00
C    7.4886891793241261E+00    2.1014041916201091E+01    3.1323509880428859E+00
C    8.1530988184864022E+00    2.2237713350550450E+01    3.1186673780669825E+00
C    9.5672268948435164E+00    2.2238762739621603E+01    3.1355976987630556E+00
C    6.0377367156412012E+00    2.3510266911049236E+01    2.9479619068346330E+00
C    7.4952574029987407E+00    2.3505530375754212E+01    2.9803030773826178E+00
C    8.2027314165344762E+00    1.2408049215088855E+01    3.4016599875571174E+00
C    9.6053643091704011E+00    1.2402990438575049E+01    3.4922861194150729E+00
C    1.0323441659779018E+01    1.3638110469133482E+01    3.4717986905068541E+00
C    1.1725126319301319E+01    1.3613965539276462E+01    3.3990205841713093E+00
C    1.2432514297172441E+01    1.4850919417631873E+01    3.3116184589274908E+00
C    1.3824821146504105E+01    1.4829711329369072E+01    3.2165002956454161E+00
C    1.0319725151389308E+01    1.6076713539824890E+01    3.5040113255775953E+00
C    1.1728470257450100E+01    1.6065314655267372E+01    3.3022369654173152E+00
C    1.2415551697338826E+01    1.7315434764911085E+01    3.2405121281090454E+00
C    1.3848295561288182E+01    1.7294334493491718E+01    3.1674511778667811E+00
C    1.0325619720307312E+01    1.8567092825783188E+01    3.3624610165323952E+00
C    1.1768353717675254E+01    1.8559267744543053E+01    3.3087533836519420E+00
C    1.2447203747877909E+01    1.9809847728343680E+01    3.3104646254401300E+00
C    1.3863518227688024E+01    1.9780955840384728E+01    3.3274885771262408E+00
C    1.0334412837252263E+01    2.1004843696107212E+01    3.2288220470710325E+00
C    1.1750636908240226E+01    2.1017727137048173E+01    3.2864982655714909E+00
C    1.2502579009675545E+01    2.2259709357620462E+01    3.2459961169182927E+00
C    1.3927000397013240E+01    2.2245116664877656E+01    3.2972555822648810E+00
C    1.0301579355340271E+01    2.3463647441130878E+01    3.1328391537601128E+00
C    1.1736666552330911E+01    2.3491203238407490E+01    3.1311634766428682E+00
C    1.2426086047338222E+01    1.2341545871295413E+01    3.4135838293432723E+00
C    1.3888425707832747E+01    1.2348017542275711E+01    3.3278808740214609E+00
C    1.4618418412719755E+01    1.2803929537410603E+00    3.5059015192448069E+00
C    1.6051681964203194E+01    1.2894525710666276E+00    3.5990361072871622E+00
C    1.6776072529984862E+01    2.4842871284004984E+00    3.5431686523146322E+00
C    1.8186595178016908E+01    2.4794801489061684E+00    3.5225128788096844E+00
C    1.4648735499948808E+01    3.7575922251539033E+00    3.5861324479447987E+00
C    1.6068176805871889E+01    3.7398553208968135E+00    3.5530490522830043E+00
C    1.6792731828326165E+01    4.9438462990663581E+00    3.4162217511470017E+00
C    1.8207949045881776E+01    4.9035410009069880E+00    3.3767028211964654E+00
C    1.4645235695545422E+01    6.2077762084023842E+00    3.5025492713151074E+00
C    1.6055515209376907E+01    6.2054541540035526E+00    3.4397283052448704E+00
C    1.6760324227720282E+01    7.4424965444842828E+00    3.3829832004709073E+00
C    1.8197684325599635E+01    7.4434241740554512E+00    3.2973301562897404E+00
C    1.4628169624098563E+01    8.6752942309397376E+00    3.4858702596900497E+00
C    1.6054054890720369E+01    8.6615054085392860E+00    3.4503120033841999E+00
C    1.6790329742729170E+01    9.8975961039882741E+00    3.3934944773972604E+00
C    1.8216129063942116E+01    9.8753357646176738E+00    3.3867483507304215E+00
C    1.4628678211079782E+01    1.1146310140995823E+01    3.3437587234361912E+00
C    1.6086150931925509E+01    1.1135802311922221E+01    3.3351256799288160E+00
C    1.6735342328433191E+01    6.5144183435282110E-02    3.5829286717824780E+00
C    1.8187065840574277E+01    5.2419739585649675E-02    3.5707185250242448E+00
C    1.8879039621351126E+01    1.2831270252886944E+00    3.5642907482531379E+00
C    2.0317137158753589E+01    1.2414412194349103E+00    3.6119598742345640E+00
C    2.1031873257841756E+01    2.4771721260685173E+00    3.4651624154387188E+00
C    2.2428686823346798E+01    2.4886273032941904E+00    3.3099890449333795E+00
C    1.8898903924257464E+01    3.6989406912092879E+00    3.4072191786391883E+00
C    2.0339996933108893E+01    3.7279303022388444E+00    3.3837519100622755E+00
C    2.1076966520313228E+01    4.9624935487629633E+00    3.3255901581282750E+00
C    2.2481516275646893E+01    4.9482608152268606E+00    3.2859309158261918E+00
C    1.8900555735393532E+01    6.1707861030944011E+00    3.3117529171881737E+00
C    2.0316051824927364E+01    6.1814007869280312E+00    3.2718837059464465E+00
C    2.1064656447292911E+01    7.4232240684014483E+00    3.3669422549354517E+00
C    2.2455516775204622E+01    7.4085448112679204E+00    3.3234557119159485E+00
C    1.8930814133901745E+01    8.6461851420578562E+00    3.3563243630916531E+00
C    2.0350631172053898E+01    8.6112651621052603E+00    3.3671376657334355E+00
C    2.1025462382191378E+01    9.8482823106575168E+00    3.4068955132639576E+00
C    2.2453254680479429E+01    9.8797797937739151E+00    3.2783166274038820E+00
C    1.8894021793785534E+01    1.1114028524120100E+01    3.3434541461435736E+00
C    2.0325754637064293E+01    1.1104412080681342E+01    3.3967802854115514E+00
C    2.1032193482689884E+01    4.3087058907648190E-02    3.5894483702815942E+00
C    2.2425989282498421E+01    4.8623367566584502E-02    3.4873204485894851E+00
C    2.3166554183198642E+01    1.2718085972117696E+00    3.3081589323283955E+00
C    2.4576804113431265E+01    1.1965509255941407E+00    3.2027407419957652E+00
C    2.5309033764154904E+01    2.4438362374241378E+00    3.1165494489458911E+00
C    2.6740748354471094E+01    2.4427851049007732E+00    3.0327855042098220E+00
C    2.3170107527513899E+01    3.7122445982256740E+00    3.2649161650137217E+00
C    2.4626717452368162E+01    3.7002748974879189E+00    3.1786857587889883E+00
C    2.5303941673339214E+01    4.9200820455351444E+00    3.1175774111269439E+00
C    2.6725788727387396E+01    4.9091635769160362E+00    2.9608581129665250E+00
C    2.3148715282904355E+01    6.1529411251969828E+00    3.2893436726310932E+00
C    2.4581659233859252E+01    6.1723462510702900E+00    3.1974475606635040E+00
C    2.5261149889455798E+01    7.4242283711588275E+00    3.0557057207332385E+00
C    2.6688479567683281E+01    7.4433883667495264E+00    2.8555387640241143E+00
C    2.3156138670843671E+01    8.6598208979472400E+00    3.2308206395303571E+00
C    2.4562962591116520E+01    8.6608077488197992E+00    3.1259256322269664E+00
C    2.5274300590487886E+01    9.8780796048899617E+00    2.9808352050106524E+00
C    2.6686796324655123E+01    9.8990249612853187E+00    2.9570413063467922E+00
C    2.3142624985092578E+01    1.1117060361333026E+01    3.1975645879611121E+00
C    2.4573394629633178E+01    1.1118002130348628E+01    3.0689215687832800E+00
C    2.5323959009342186E+01   -1.8978219118737354E-02    3.2417370103889178E+00
C    2.6731362746084326E+01    1.8789646350253021E-02    3.1478898419646741E+00
C    1.4543281209751180E+01    1.3593180427948875E+01    3.3030199270727114E+00
C    1.5990276268552627E+01    1.3580263065079102E+01    3.3892774245958863E+00
C    1.6701223396215404E+01    1.4803351329412774E+01    3.3884106070981899E+00
C    1.8141454105334457E+01    1.4807947368082237E+01    3.3673178688016923E+00
C    1.4553504383146763E+01    1.6061859881120434E+01    3.1714397572713717E+00
C    1.5970612754522167E+01    1.6077107900741986E+01    3.2879336545135462E+00
C    1.6751419802346394E+01    1.7267163898416136E+01    3.2628815190749179E+00
C    1.8180477668766599E+01    1.7243492070897105E+01    3.2608405380373067E+00
C    1.4566716511770583E+01    1.8532089256369392E+01    3.2196249601124087E+00
C    1.6039946744666604E+01    1.8521083321048721E+01    3.2713217570513846E+00
C    1.6739672935393070E+01    1.9742820019020417E+01    3.2732549834389251E+00
C    1.8178727069677812E+01    1.9745831923205589E+01    3.3903104011031409E+00
C    1.4618261317222931E+01    2.1004755425974064E+01    3.3015732914459264E+00
C    1.6059748087417649E+01    2.1007118789217149E+01    3.3171037567109103E+00
C    1.6757010883097447E+01    2.2211661637793355E+01    3.4043567657027847E+00
C    1.8217204312150173E+01    2.2244558733345851E+01    3.4693356409255789E+00
C    1.4640042695280210E+01    2.3440922750859730E+01    3.3218633621401614E+00
C    1.6050417948163549E+01    2.3472280832358752E+01    3.5021650001141844E+00
C    1.6748219541933345E+01    1.2346957020267997E+01    3.3014201090417612E+00
C    1.8183302817666608E+01    1.2319348778816213E+01    3.3291819557401543E+00
C    1.8835497824938422E+01    1.3578625023277640E+01    3.3227870191223485E+00
C    2.0258639103380620E+01    1.3580476251634932E+01    3.4062905285499157E+00
C    2.0976692547778832E+01    1.4838186963653220E+01    3.3572431365885880E+00
C    2.2391050864803404E+01    1.4804487376636741E+01    3.2662847204963170E+00
C    1.8885309159945027E+01    1.6017282384597259E+01    3.2653153011093705E+00
C    2.0275375020185187E+01    1.6083405624162850E+01    3.3563908697892044E+00
C    2.1024786635255953E+01    1.7296867652831065E+01    3.4233229771913929E+00
C    2.2455553005382601E+01    1.7299073160026008E+01    3.3225716290957044E+00
C    1.8905958180462733E+01    1.8472513094766654E+01    3.3745724836943674E+00
C    2.0303896338802755E+01    1.8507647722742153E+01    3.4170004228343274E+00
C    2.1019201566268652E+01    1.9732703177457104E+01    3.4865128469671354E+00
C    2.2475468375442940E+01    1.9754035606372216E+01    3.4354781674711652E+00
C    1.8892796955474797E+01    2.0998051937088722E+01    3.4682090768563700E+00
C    2.0333591313781724E+01    2.0959673720676999E+01    3.5097683970517402E+00
C    2.1008711753999002E+01    2.2200388281611204E+01    3.6164010631491483E+00
C    2.2454094011738988E+01    2.2246089051386420E+01    3.5919960021181181E+00
C    1.8891431928737735E+01    2.3459164922110123E+01    3.5346117910411161E+00
C    2.0324475900973535E+01    2.3469550682525139E+01    3.5944311891615350E+00
C    2.0999592375367140E+01    1.2366335724453963E+01    3.4268700211400760E+00
C    2.2406401830244199E+01    1.2364951933565173E+01    3.3519026461109283E+00
C    2.3131578062446497E+01    1.3596152577645791E+01    3.2440175338304620E+00
C    2.4574454133435907E+01    1.3570987975975532E+01    3.2067567119407885E+00
C    2.5296002949556307E+01    1.4791845235975202E+01    3.1058888486092240E+00
C    2.6719096138469222E+01    1.4785824385261305E+01    3.1230938260334793E+00
C    2.3136465856307424E+01    1.6042179655321661E+01    3.2025114755723667E+00
C    2.4573301695056166E+01    1.6026540131577924E+01    3.1907633149198582E+00
C    2.5264259571555868E+01    1.7272857536328249E+01    3.2375968889787474E+00
C    2.6736364299399074E+01    1.7245556917141968E+01    3.2261515806019236E+00
C    2.3178569470832873E+01    1.8515540658971322E+01    3.3687048802007249E+00
C    2.4625817430742178E+01    1.8537091901375838E+01    3.2690831133999696E+00
C    2.5340305795524163E+01    1.9771570819654467E+01    3.2977977824122240E+00
C    2.6748310310166350E+01    1.9772625576412960E+01    3.3273381352724489E+00
C    2.3188437343014762E+01    2.1001201245581445E+01    3.4938418954151902E+00
C    2.4613219855036196E+01    2.1015030898743873E+01    3.4483561124744497E+00
C    2.5305556839077656E+01    2.2233922031334842E+01    3.4069347051267314E+00
C    2.6744995914586568E+01    2.2257353758603887E+01    3.3827283660452045E+00
C    2.3167877117459625E+01    2.3468381130186916E+01    3.4884338446709164E+00
C    2.4593349241283761E+01    2.3435778196155781E+01    3.4229870472944253E+00
C    2.5281817180694759E+01    1.2342501352636067E+01    3.0550758798776614E+00
C    2.6730657578368739E+01    1.2316703763837022E+01    3.0643632475395197E+00
O    3.5594830089974027E+02    2.3765615079835882E+02    1.2381127232441452E+01
H    3.5636034628692050E+02    2.3733396007293183E+02    1.3223320472353985E+01
H    3.5651796970220960E+02    2.3712128603257648E+02    1.1737706254505662E+01
O    3.8377951031714792E+02    1.6975195679216944E+02    6.5000981345516378E+00
H    3.8285889047387820E+02    1.6938306676949415E+02    6.2917067338206749E+00
H    3.8379425941606718E+02    1.6948792830002924E+02    7.4886676747549394E+00
O    3.0691945553399921E+02    2.9256137656707102E+02    9.1482333460611844E+00
H    3.0705024689535651E+02    2.9171244266799522E+02    9.6583162153302720E+00
H    3.0621876963315043E+02    2.9307169635345241E+02    9.7626284682949471E+00
O    4.7391200752204043E+02    2.3197549068841673E+02    1.4524669707917171E+01
H    4.7379170774319800E+02    2.3226009381663272E+02    1.3618326301352857E+01
H    4.7417430874289198E+02    2.3103183872748252E+02    1.4606425022474507E+01
O    3.4983392126199055E+02    2.7290773182662377E+02    6.7272818239563241E+00
H    3.5061301228284611E+02    2.7337350124001881E+02    6.4423880153362827E+00
H    3.5018404455601006E+02    2.7218418841289821E+02    7.2601242094972545E+00
O    3.9505999711698905E+02    1.7886419007490133E+02    1.2719182594692853E+01
H    3.9526496924501697E+02    1.7952440943518982E+02    1.3497245698736810E+01
H    3.9542052651504110E+02    1.7913824259122651E+02    1.1844272214470159E+01
O    3.9041074040292841E+02    3.2174072361787438E+02    6.0715781224927703E+00
H    3.9139524684128645E+02    3.2162169612108340E+02    5.9857041454880209E+00
H    3.9024031670614761E+02    3.2131626074657794E+02    6.9711085349086206E+00
O    3.8834055883455085E+02    1.6575666415979674E+02    1.1411562786356267E+01
H    3.8815644914987843E+02    1.6474803961447751E+02    1.1319820935066582E+01
H    3.8747568071428179E+02    1.6596287121106263E+02    1.0938631115418309E+01
O    2.8465694255509516E+02    1.8811392919867978E+02    1.1474685274599214E+01
H    2.8497530749985719E+02    1.8745238652102466E+02    1.2107648187334686E+01
H    2.8445258098151533E+02    1.8765945805475727E+02    1.0570700690641653E+01
O    5.3447952342116196E+02    3.3467771829044602E+02    1.6425750269343894E+01
H    5.3394509943843354E+02    3.3546772327648512E+02    1.6627967715452264E+01
H    5.3375573173314694E+02    3.3394645695701240E+02    1.6438844875181875E+01
O    3.3280264182645055E+02    2.0536904623780202E+02    2.1904757555664744E+01
H    3.3336814989297812E+02    2.0485474272579367E+02    2.1303343608745902E+01
H    3.3336552350610793E+02    2.0560933474488505E+02    2.2684691041040018E+01
O    3.5043289931874506E+02    2.0880826645738691E+02    1.0284926321331742E+01
H    3.5090915793054364E+02    2.0959167785998739E+02    9.8476501962563781E+00
H    3.4943613214615982E+02    2.0890941493661853E+02    1.0081646645836900E+01
O    4.4496541359800716E+02    7.7835917594229826E+01    2.2251837038224508E+01
H    4.4552977229951949E+02    7.8133308721841672E+01    2.1538360292481958E+01
H    4.4452278957319442E+02    7.7000739468821592E+01    2.1973864918281837E+01
O    3.7645276481875948E+02    7.9040996924014280E+01    9.9698496158776884E+00
H    3.7637171113028722E+02    7.8829240854697588E+01    1.0904111984901398E+01
H    3.7603402426728940E+02    7.9889264291191594E+01    9.7133239307132762E+00
O    3.0402478314328437E+02    3.7225634420641728E+02    1.8169906509019050E+01
H    3.0354020618638879E+02    3.7191024883865231E+02    1.8916181194460226E+01
H    3.0345464113142742E+02    3.7204401273017362E+02    1.7431342895497341E+01
O    3.1600902365428249E+02    2.2645696887340367E+02    1.2734398044971307E+01
H    3.1517155369488790E+02    2.2701216004320742E+02    1.2772141200204770E+01
H    3.1677279507052936E+02    2.2716140618968240E+02    1.2377853558047391E+01
O    4.2130311089235812E+02    2.9584960475631681E+02    1.8699744637767804E+01
H    4.2132119696515070E+02    2.9672908920037486E+02    1.9163790431177326E+01
H    4.2066210679039096E+02    2.9521177795038847E+02    1.9193092792092727E+01
O    4.0509532517457853E+02    1.4691976070743453E+02    1.8103976126253102E+01
H    4.0412730403528349E+02    1.4693823615956461E+02    1.8018846423666911E+01
H    4.0527439920193740E+02    1.4751079062363891E+02    1.8863673997282959E+01
O    3.1866591202570174E+02    2.9859724730029211E+02    1.9378750719011403E+01
H    3.1779733541862237E+02    2.9900038273999814E+02    1.9259543249350340E+01