 # Version information for this restart file 
 # current date 2020-01-19 14:05:22.641
 # current working dir /scratch/snx3000/gtocci/gtocci/MEMBRANES/AIMD_US_IONS_BN/aimd_us_iodide/us_17
 # Program compiled at                              Fri Nov 22 15:19:42 CET 2019
 # Program compiled on                                                  daint102
 # Program compiled for                                   CRAY_XC50-gfortran_gpu
 # Source code revision number                                       git:a698b45
 &GLOBAL
   PRINT_LEVEL  LOW
   PROJECT_NAME BNS
   RUN_TYPE  MD
   WALLTIME 86400
 &END GLOBAL
 &MOTION
   &MD
     ENSEMBLE  NVT
     STEPS  2000
     TIMESTEP     9.9999999999999989E-01
     STEP_START_VAL  42792
     TIME_START_VAL     4.2791999999987929E+04
     ECONS_START_VAL    -8.4829571010665495E+03
     TEMPERATURE     3.0000000000000000E+02
     TEMP_KIND  T
     &BAROSTAT
       PRESSURE     1.0000000000000000E+00
       TIMECON     9.9999999999999986E+01
       VIRIAL  Z
     &END BAROSTAT
     &THERMOSTAT
       TYPE  NOSE
       REGION  GLOBAL
       &NOSE
         LENGTH  4
         TIMECON     9.9999999999999986E+01
         MTS  2
         &COORD
               2.9006378293560392E-01    2.0426992478902967E+01   -1.0071421183051374E+01   -2.2492529533208900E+00
         &END COORD
         &VELOCITY
              -1.4461859645334268E-06    3.1043588204876076E-04    1.2381114682103361E-04    3.1643369977081467E-04
         &END VELOCITY
         &MASS
               7.0145132684705392E+07    1.6237299232570693E+04    1.6237299232570693E+04    1.6237299232570693E+04
         &END MASS
         &FORCE
               9.8489384726351271E-10   -4.9474933243966850E-08    3.7860423013287037E-08   -4.3180813772965526E-08
         &END FORCE
       &END NOSE
     &END THERMOSTAT
     &AVERAGES  T
       &RESTART_AVERAGES
         ITIMES_START  1
         AVECPU     2.3961864085100949E+01
         AVEHUGONIOT     0.0000000000000000E+00
         AVETEMP_BARO     0.0000000000000000E+00
         AVEPOT    -8.4857823398405362E+03
         AVEKIN     2.0552668481992109E+00
         AVETEMP     3.0046350247069842E+02
         AVEKIN_QM     0.0000000000000000E+00
         AVETEMP_QM     0.0000000000000000E+00
         AVEVOL     2.2086622704881200E+05
         AVECELL_A     4.9287836997924963E+01
         AVECELL_B     4.7426456757032106E+01
         AVECELL_C     9.4486306644279694E+01
         AVEALPHA     9.0000000000000000E+01
         AVEBETA     9.0000000000000000E+01
         AVEGAMMA     9.0000000000000000E+01
         AVE_ECONS     4.6473312380143611E+01
         AVE_PRESS     0.0000000000000000E+00
         AVE_PXX     0.0000000000000000E+00
       &END RESTART_AVERAGES
     &END AVERAGES
     &PRINT
       &TEMP_KIND  SILENT
       &END TEMP_KIND
     &END PRINT
   &END MD
   &FREE_ENERGY
     &METADYN
       MIN_DISP    -1.0000000000000000E+00
       OLD_HILL_NUMBER  0
       OLD_HILL_STEP  0
       DO_HILLS  F
       STEP_START_VAL  42792
       NHILLS_START_VAL  0
       &METAVAR
         SCALE     1.0000000000000000E+00
         COLVAR  1
       &END METAVAR
       &PRINT
         &COLVAR  SILENT
           COMMON_ITERATION_LEVELS  3
           &EACH
             MD  1
           &END EACH
         &END COLVAR
       &END PRINT
     &END METADYN
   &END FREE_ENERGY
   &CONSTRAINT
     &COLLECTIVE
       COLVAR  1
       INTERMOLECULAR  T
       &RESTRAINT
         K     4.4625385281452931E-04
       &END RESTRAINT
     &END COLLECTIVE
     &COLVAR_RESTART
           1.6285005873480188E+01
     &END COLVAR_RESTART
   &END CONSTRAINT
   &PRINT
     &TRAJECTORY  SILENT
       &EACH
         MD  1
       &END EACH
     &END TRAJECTORY
     &VELOCITIES  SILENT
       &EACH
         MD  1
       &END EACH
     &END VELOCITIES
     &FORCES  SILENT
       UNIT eV*angstrom^-1
       &EACH
         MD  1
       &END EACH
     &END FORCES
     &RESTART  SILENT
       &EACH
         MD  1
       &END EACH
     &END RESTART
     &RESTART_HISTORY  SILENT
       &EACH
         MD  100
       &END EACH
     &END RESTART_HISTORY
   &END PRINT
 &END MOTION
 &FORCE_EVAL
   METHOD  QS
   &DFT
     BASIS_SET_FILE_NAME /users/gtocci/scratch_daint_3000/data_cp2k//BASIS_MOLOPT
     POTENTIAL_FILE_NAME /users/gtocci/scratch_daint_3000/data_cp2k//GTH_POTENTIALS
     WFN_RESTART_FILE_NAME ./BNS-RESTART.wfn
     CHARGE  -1
     &SCF
       MAX_SCF  10
       EPS_SCF     9.9999999999999995E-07
       SCF_GUESS  RESTART
       &OT  T
         MINIMIZER  DIIS
         PRECONDITIONER  FULL_KINETIC
       &END OT
       &OUTER_SCF  T
         EPS_SCF     9.9999999999999995E-07
         MAX_SCF  30
       &END OUTER_SCF
       &PRINT
         &RESTART  SILENT
           ADD_LAST  NUMERIC
           &EACH
             QS_SCF  50
           &END EACH
         &END RESTART
       &END PRINT
     &END SCF
     &QS
       MAP_CONSISTENT  T
       EXTRAPOLATION  ASPC
       EXTRAPOLATION_ORDER  4
     &END QS
     &MGRID
       NGRIDS  5
       CUTOFF     4.6000000000000000E+02
     &END MGRID
     &XC
       DENSITY_CUTOFF     1.0000000000000000E-10
       GRADIENT_CUTOFF     1.0000000000000000E-10
       TAU_CUTOFF     1.0000000000000000E-10
       &XC_GRID
         XC_DERIV  SPLINE2_SMOOTH
       &END XC_GRID
       &XC_FUNCTIONAL  NO_SHORTCUT
         &LIBXC  T
           FUNCTIONAL XC_GGA_X_OPTB88_VDW
         &END LIBXC
         &VWN  T
         &END VWN
       &END XC_FUNCTIONAL
       &VDW_POTENTIAL
         POTENTIAL_TYPE  NON_LOCAL
         &NON_LOCAL
           TYPE  DRSLL
           VERBOSE_OUTPUT  T
           KERNEL_FILE_NAME /users/gtocci/scratch_daint_3000/data_cp2k//vdW_kernel_table.dat
           CUTOFF     3.6000000000000000E+02
         &END NON_LOCAL
       &END VDW_POTENTIAL
     &END XC
     &REAL_TIME_PROPAGATION
       INITIAL_WFN  SCF_WFN
     &END REAL_TIME_PROPAGATION
     &PRINT
       &MULLIKEN  SILENT
         FILENAME =BNS.mulliken
       &END MULLIKEN
     &END PRINT
   &END DFT
   &SUBSYS
     &CELL
       A     2.6082000000000019E+01    0.0000000000000000E+00    0.0000000000000000E+00
       B     0.0000000000000000E+00    2.5097000000000001E+01    0.0000000000000000E+00
       C     0.0000000000000000E+00    0.0000000000000000E+00    5.0000000000000028E+01
       MULTIPLE_UNIT_CELL  1 1 1
     &END CELL
     &COORD
B   -2.4525906244957758E+00    8.9432088297899028E+00   -3.0603266529867490E+01
B   -2.9660552706430060E-01    1.0187527266552463E+01   -3.0425630606060928E+01
B   -2.4271504234525723E+00    1.1435384232228543E+01   -3.0594450435748790E+01
B   -2.2815887827744688E-01    1.2700616262747142E+01   -3.0432355657358094E+01
B   -2.3490154490879354E+00    1.3917098716362249E+01   -3.0767667018647465E+01
B   -2.4033042853455686E-01    1.5237655435578111E+01   -3.0624810236823844E+01
B   -2.3732477805915049E+00    1.6434335939887852E+01   -3.0940830497234248E+01
B   -2.0457844898472416E-01    1.7729480527866091E+01   -3.0911042413338642E+01
B   -2.3774128978210927E+00    1.8907109049721058E+01   -3.1066503865042520E+01
B   -2.3926906959655544E-01    2.0259053116476661E+01   -3.1060263359571174E+01
B    1.9061354852087795E+00    8.9661574210051942E+00   -3.0211327944348994E+01
B    4.1223101350000704E+00    1.0204430501691872E+01   -2.9956339221921304E+01
B    1.8668251893635361E+00    1.1432504865450225E+01   -3.0121834402702003E+01
B    4.0550455234026437E+00    1.2703367756702539E+01   -3.0023884674497257E+01
B    1.9405545743567723E+00    1.3993573752387411E+01   -3.0266318355603950E+01
B    4.0970150302684001E+00    1.5265009621721031E+01   -3.0221828889295985E+01
B    1.9850899832359077E+00    1.6538447278452114E+01   -3.0582985654109617E+01
B    4.0844037642579822E+00    1.7777951189653837E+01   -3.0534512450810677E+01
B    1.9601685031641927E+00    1.9035547931431474E+01   -3.0822297074598392E+01
B    4.1505289099111717E+00    2.0257824137565727E+01   -3.0579064263468066E+01
B    6.3138964312833821E+00    8.9465491571870341E+00   -2.9973375549966946E+01
B    8.4773178504653046E+00    1.0203184191156344E+01   -3.0062947453897532E+01
B    6.2447945360704020E+00    1.1481197258287972E+01   -2.9949665077817652E+01
B    8.4541203530815654E+00    1.2757945401639962E+01   -2.9886299240915385E+01
B    6.2530058018473413E+00    1.3976836673977679E+01   -2.9981004113979782E+01
B    8.3973802100042061E+00    1.5299404401895000E+01   -3.0111054063597628E+01
B    6.2489830387785137E+00    1.6513598573261653E+01   -3.0077090485095976E+01
B    8.4961817090617640E+00    1.7762138985217014E+01   -3.0276878320662050E+01
B    6.2372945939225302E+00    1.8990995033627428E+01   -3.0377781188410747E+01
B    8.4718844411690650E+00    2.0235107391006913E+01   -3.0475877463265046E+01
N   -1.0222046675833578E+00    8.9487508424565192E+00   -3.0518428000476288E+01
N    1.1594077721195659E+00    1.0181372414722354E+01   -3.0282027614976585E+01
N   -9.8830135366624117E-01    1.1462255807313436E+01   -3.0449465374092554E+01
N    1.2213789870279517E+00    1.2710420846508514E+01   -3.0337683863419546E+01
N   -9.5184476954630948E-01    1.3961829898145050E+01   -3.0587340416788418E+01
N    1.2276996388594974E+00    1.5266511462785271E+01   -3.0452865231973899E+01
N   -9.3100739291481982E-01    1.6475267638955774E+01   -3.0820701717215535E+01
N    1.2536745447820301E+00    1.7731103788699460E+01   -3.0782341260823816E+01
N   -9.3611917558176672E-01    1.8968185843746166E+01   -3.1087300512962631E+01
N    1.2228152186341970E+00    2.0274708135818781E+01   -3.0909567632673397E+01
N    3.3128633826727532E+00    8.9498437953831473E+00   -2.9926736138512524E+01
N    5.5490600296979267E+00    1.0173224437607407E+01   -2.9939203926988110E+01
N    3.3942758790774930E+00    1.1456111306798743E+01   -3.0046557014582749E+01
N    5.5255287316890023E+00    1.2716854042234456E+01   -3.0000288591820652E+01
N    3.3619176324237459E+00    1.4011082194656606E+01   -3.0079740131887217E+01
N    5.5302101398013965E+00    1.5283311192966845E+01   -3.0040889638222701E+01
N    3.4384954989732730E+00    1.6528819569283094E+01   -3.0595057181334397E+01
N    5.5432429839485735E+00    1.7736133007777337E+01   -3.0368142555226022E+01
N    3.4118286638960731E+00    1.8992159295045919E+01   -3.0720003843796533E+01
N    5.5691430519590632E+00    2.0260942385659202E+01   -3.0451413811372340E+01
N    7.7273217565877275E+00    8.9555063863027851E+00   -3.0077268103320769E+01
N    9.9203807366842440E+00    1.0249627296672671E+01   -3.0214184029767868E+01
N    7.6574932765709196E+00    1.1475469909122310E+01   -2.9954581255447483E+01
N    9.8870335437346810E+00    1.2791342916958605E+01   -2.9842782259899437E+01
N    7.7081783479003372E+00    1.4005655840575704E+01   -2.9963158966075174E+01
N    9.8987225570307285E+00    1.5307692395072575E+01   -3.0031652807278483E+01
N    7.6957476896310100E+00    1.6536133350778574E+01   -3.0158060326940912E+01
N    9.9274816262554797E+00    1.7806667121117279E+01   -3.0361610871764846E+01
N    7.7010395479477349E+00    1.8990017371913211E+01   -3.0258767717823972E+01
N    9.9622871226385126E+00    2.0269200130036946E+01   -3.0467048919689887E+01
B   -2.4025833534310950E+00    2.1442200904705189E+01   -3.1123303861920522E+01
B   -2.1965585677796184E-01    2.2742447737806838E+01   -3.0955362618787145E+01
B   -2.3604434926126325E+00    2.4024947785314264E+01   -3.0824437793885451E+01
B   -2.2400884621472350E-01    2.5198324694793460E+01   -3.0687757145239679E+01
B   -2.4445307395507831E+00    2.6516659947649952E+01   -3.0725004944291992E+01
B   -2.0038887361362598E-01    2.7829099456844322E+01   -3.0662245984591287E+01
B   -2.4257566854001968E+00    2.8999866021643399E+01   -3.0668365411331905E+01
B   -2.4928895995227909E-01    3.0307844934704164E+01   -3.0683441710386720E+01
B   -2.4199551354681614E+00    3.1568161295071171E+01   -3.0680488297054598E+01
B   -2.2891313280707720E-01    3.2808064748515093E+01   -3.0451260663939205E+01
B    1.9454577247863385E+00    2.1508682227250429E+01   -3.0781561227882513E+01
B    4.1061356697179958E+00    2.2764289363904279E+01   -3.0441951214288046E+01
B    1.9350657109149376E+00    2.4023626239488088E+01   -3.0670802890807185E+01
B    4.0759598763189464E+00    2.5236157217747699E+01   -3.0637964109039913E+01
B    1.9401421103763243E+00    2.6522848991320178E+01   -3.0730568356944325E+01
B    4.0931242337134170E+00    2.7750467125480970E+01   -3.0496850120075941E+01
B    2.0005056439135309E+00    2.9043363852901670E+01   -3.0601261742511500E+01
B    4.1347258539434053E+00    3.0291185502691331E+01   -3.0286537534456013E+01
B    1.9613839619897617E+00    3.1546442812151923E+01   -3.0296871912052332E+01
B    4.1251974397281712E+00    3.2785584544737617E+01   -2.9996493510911932E+01
B    6.2989574579961101E+00    2.1513224611473905E+01   -3.0415163815860133E+01
B    8.4774523290970176E+00    2.2771117874326837E+01   -3.0490134064796109E+01
B    6.2887295253726059E+00    2.4050514158716627E+01   -3.0445436853162153E+01
B    8.5015437236925688E+00    2.5274004228443655E+01   -3.0440193670819653E+01
B    6.2788380906926502E+00    2.6518311738219982E+01   -3.0619438685289566E+01
B    8.5247264273342278E+00    2.7816085529326855E+01   -3.0570805949920192E+01
B    6.3120875932155940E+00    2.9061628968596640E+01   -3.0438687236905395E+01
B    8.3841502642179098E+00    3.0393239940486147E+01   -3.0272215392959055E+01
B    6.2903449512721830E+00    3.1533404968847389E+01   -3.0022873003150007E+01
B    8.4836963255709836E+00    3.2810969987387509E+01   -3.0014148423038410E+01
N   -9.5054764585436280E-01    2.1506952117917610E+01   -3.1038405351783442E+01
N    1.2362335415816206E+00    2.2764871202739197E+01   -3.0881806500313356E+01
N   -9.3581643571262574E-01    2.3990257693516764E+01   -3.0800539428808587E+01
N    1.2339378072675011E+00    2.5225393417368974E+01   -3.0654717961070659E+01
N   -9.4209785490567377E-01    2.6529094516381456E+01   -3.0631953520409485E+01
N    1.2339331589765490E+00    2.7793903356465947E+01   -3.0811240449634859E+01
N   -9.5595354406748867E-01    2.9089748333361712E+01   -3.0643404685080011E+01
N    1.2428305256853052E+00    3.0327462741809175E+01   -3.0594017215691775E+01
N   -9.4453325121220644E-01    3.1568261885396002E+01   -3.0703638497646264E+01
N    1.1972197447697221E+00    3.2813089485637356E+01   -3.0270103287285956E+01
N    3.4166914274262146E+00    2.1511941515721048E+01   -3.0571483745809786E+01
N    5.5841905374025353E+00    2.2764066230977360E+01   -3.0334702617719088E+01
N    3.3779268555448345E+00    2.3974350109260676E+01   -3.0482544940296659E+01
N    5.5461053771504147E+00    2.5258093830866418E+01   -3.0591631344759790E+01
N    3.3885519207540384E+00    2.6519296526130354E+01   -3.0749815550479209E+01
N    5.5576221592832127E+00    2.7802652678315450E+01   -3.0635380008285761E+01
N    3.4356143008436248E+00    2.9068328845792571E+01   -3.0492183481836491E+01
N    5.6068572986133223E+00    3.0268232122931327E+01   -3.0170564527895579E+01
N    3.4393878636758992E+00    3.1532814439488202E+01   -3.0177031058953354E+01
N    5.5959301322070392E+00    3.2784053989927735E+01   -2.9957657317178839E+01
N    7.7661451815985139E+00    2.1515144754913496E+01   -3.0447951202439029E+01
N    9.8913092789762693E+00    2.2777235954807075E+01   -3.0392880502528296E+01
N    7.7168550372694344E+00    2.4035911826411638E+01   -3.0407950054610772E+01
N    9.9391417872969487E+00    2.5311730321852892E+01   -3.0633740613026447E+01
N    7.7670390504927633E+00    2.6549610383386362E+01   -3.0456114521892157E+01
N    9.9241831731092134E+00    2.7808046525562240E+01   -3.0520468741209857E+01
N    7.7599141976341262E+00    2.9097316337287911E+01   -3.0485354353655620E+01
N    9.8854444357066757E+00    3.0324445812241642E+01   -3.0307840395398333E+01
N    7.7259819024218581E+00    3.1635055969082195E+01   -3.0131998474496104E+01
N    9.9333942941527074E+00    3.2828776143976896E+01   -3.0207561083511457E+01
B    1.0670896925185811E+01    9.0219408770665570E+00   -3.0233978829342572E+01
B    1.2759569770471126E+01    1.0287759690174598E+01   -3.0221264615939557E+01
B    1.0609110152038896E+01    1.1542498636656727E+01   -3.0035908281824995E+01
B    1.2774173667352283E+01    1.2760278560611150E+01   -3.0134173385547381E+01
B    1.0669335716976795E+01    1.4024359611067322E+01   -3.0016247721310439E+01
B    1.2838331551915104E+01    1.5282668400260414E+01   -3.0331973260198172E+01
B    1.0613526453465457E+01    1.6531355548968815E+01   -3.0296335043322742E+01
B    1.2848585354727774E+01    1.7771236441517537E+01   -3.0759477666809424E+01
B    1.0655802564997154E+01    1.9005001333312343E+01   -3.0437475504162744E+01
B    1.2853917657745198E+01    2.0268186770575618E+01   -3.0613474501200404E+01
B    1.4939720973436186E+01    8.9842282066966916E+00   -3.0340076996673780E+01
B    1.7130602913356523E+01    1.0216457369510339E+01   -3.0330857480938079E+01
B    1.4977196824260503E+01    1.1488480387498182E+01   -3.0257321073324778E+01
B    1.7203865679000625E+01    1.2751263432654271E+01   -3.0638360745321453E+01
B    1.5000371163168142E+01    1.3982480719814509E+01   -3.0471460016995447E+01
B    1.7233099386144957E+01    1.5179385714613732E+01   -3.0789545757613972E+01
B    1.5019375929863056E+01    1.6479932281480174E+01   -3.0753693059945217E+01
B    1.7201949899445669E+01    1.7714526246450109E+01   -3.1030994489954491E+01
B    1.5021725010068057E+01    1.8946809062742034E+01   -3.0839447664154484E+01
B    1.7188226041831129E+01    2.0202035498850449E+01   -3.1019513210215688E+01
B    1.9300347019010008E+01    8.9084488214324757E+00   -3.0406663467265023E+01
B    2.1515419440394918E+01    1.0209311868593518E+01   -3.0504320994450868E+01
B    1.9346876349110524E+01    1.1471759219859338E+01   -3.0506674672367769E+01
B    2.1546014863139153E+01    1.2772286519529759E+01   -3.0655279801888074E+01
B    1.9350167157664838E+01    1.3966451547780707E+01   -3.0703099521470673E+01
B    2.1566895167267550E+01    1.5220179019380440E+01   -3.0756604830755077E+01
B    1.9385392682326156E+01    1.6430719370391987E+01   -3.1014274339007915E+01
B    2.1518865044232648E+01    1.7696974840823991E+01   -3.1100910472434954E+01
B    1.9406269021586905E+01    1.8954637245923919E+01   -3.1164770280772519E+01
B    2.1547435091088211E+01    2.0195705703823553E+01   -3.1279158885749712E+01
N    1.2130270688141771E+01    9.0088702203736464E+00   -3.0323502156995097E+01
N    1.4240026594326809E+01    1.0234708690506816E+01   -3.0252996455575211E+01
N    1.2079478796960892E+01    1.1544797993512784E+01   -3.0113982518372250E+01
N    1.4234637102357574E+01    1.2765104778253725E+01   -3.0266447132323144E+01
N    1.2102111171887248E+01    1.4044246177831905E+01   -3.0163789748965222E+01
N    1.4297287414604652E+01    1.5253324911037065E+01   -3.0506378152260382E+01
N    1.2130976624892924E+01    1.6532230922388347E+01   -3.0457271499023552E+01
N    1.4277562368599414E+01    1.7741315340722757E+01   -3.0774234280975360E+01
N    1.2125201857307932E+01    1.9055980810535953E+01   -3.0578837279352168E+01
N    1.4248471934339957E+01    2.0231625114078465E+01   -3.0887831488365659E+01
N    1.6417202483847998E+01    8.9893565107531490E+00   -3.0283277241472838E+01
N    1.8643049593182862E+01    1.0225013524797122E+01   -3.0367008280009887E+01
N    1.6424354921613119E+01    1.1465966760653318E+01   -3.0500607375403241E+01
N    1.8648963625781253E+01    1.2720535266448907E+01   -3.0718277733712458E+01
N    1.6421518606541635E+01    1.3985882494104349E+01   -3.0670805147778911E+01
N    1.8642158152894321E+01    1.5247298784305924E+01   -3.0844206313528868E+01
N    1.6522967890077467E+01    1.6457385855047569E+01   -3.0878396664272419E+01
N    1.8660714954286373E+01    1.7721149674485890E+01   -3.1122863766776479E+01
N    1.6429548367953892E+01    1.8961400909806887E+01   -3.1028832008706853E+01
N    1.8650597586115833E+01    2.0205914671739883E+01   -3.1166592716428795E+01
N    2.0752943425816149E+01    8.9446546436368486E+00   -3.0443117998043743E+01
N    2.2973765965412671E+01    1.0179846482299283E+01   -3.0554197893730073E+01
N    2.0822899838246418E+01    1.1488631363759591E+01   -3.0570645572441460E+01
N    2.2982690491777582E+01    1.2673296618232895E+01   -3.0783471549621673E+01
N    2.0780115067652005E+01    1.4009231814169503E+01   -3.0646774668606511E+01
N    2.3010569919936099E+01    1.5187734839142133E+01   -3.0899953651343065E+01
N    2.0836885938556971E+01    1.6444669738920890E+01   -3.0965798023506970E+01
N    2.2956370320238889E+01    1.7699710992939483E+01   -3.1069225495293594E+01
N    2.0830071135952632E+01    1.8973986737488225E+01   -3.1212877633086535E+01
N    2.2981028071073531E+01    2.0209453670909188E+01   -3.1213877906341747E+01
B    1.0683409702236077E+01    2.1528587318327517E+01   -3.0447103217329513E+01
B    1.2845134096938072E+01    2.2789536843164875E+01   -3.0518785170097328E+01
B    1.0639136485411532E+01    2.4005327886834294E+01   -3.0447232011941441E+01
B    1.2779703369868967E+01    2.5282378697298178E+01   -3.0496639568282365E+01
B    1.0641157908890454E+01    2.6518238481333803E+01   -3.0533263537979654E+01
B    1.2776145441954487E+01    2.7826973961136023E+01   -3.0406329821725102E+01
B    1.0638741649927514E+01    2.9063723195624593E+01   -3.0417993084800457E+01
B    1.2779350218596850E+01    3.0334800588380268E+01   -3.0393429824086265E+01
B    1.0598234197641727E+01    3.1529747335407833E+01   -3.0254550033927643E+01
B    1.2810488945946954E+01    3.2807993713684724E+01   -3.0308390074861155E+01
B    1.5026979936245574E+01    2.1511727215257533E+01   -3.0909378601310117E+01
B    1.7146571228517285E+01    2.2716629097211005E+01   -3.0846478275649801E+01
B    1.4996280850742401E+01    2.4014581471713988E+01   -3.0638492708353706E+01
B    1.7145762581438600E+01    2.5235454541104112E+01   -3.0669999341863747E+01
B    1.4931930101831144E+01    2.6593997459397716E+01   -3.0559824379781237E+01
B    1.7099924158192483E+01    2.7754378493912430E+01   -3.0642679922443691E+01
B    1.4989777444024281E+01    2.9044960244290891E+01   -3.0547092669786320E+01
B    1.7133974458292489E+01    3.0266896473383873E+01   -3.0524980498487167E+01
B    1.5001895372435724E+01    3.1576506241665676E+01   -3.0407646529750057E+01
B    1.7147859091504042E+01    3.2829580067996126E+01   -3.0334736614370218E+01
B    1.9382612282251227E+01    2.1452258598053689E+01   -3.1165298440169998E+01
B    2.1573741739763303E+01    2.2746689538840396E+01   -3.1076566379587021E+01
B    1.9339624730798516E+01    2.4003614355501647E+01   -3.0929806431311174E+01
B    2.1487378900303732E+01    2.5269770878720401E+01   -3.0914191703584287E+01
B    1.9274675152238764E+01    2.6469441778545185E+01   -3.0712745679802783E+01
B    2.1497926749792555E+01    2.7751485112753649E+01   -3.0648686914787611E+01
B    1.9291258358539316E+01    2.8980376212529343E+01   -3.0520188104839164E+01
B    2.1477021107087410E+01    3.0309086727365749E+01   -3.0481012281969988E+01
B    1.9291595490397416E+01    3.1532233440854803E+01   -3.0397770951485114E+01
B    2.1476750808228889E+01    3.2795511250901598E+01   -3.0574390321442010E+01
N    1.2095497760695141E+01    2.1530569197611008E+01   -3.0452608145133297E+01
N    1.4263313750034023E+01    2.2785338247764091E+01   -3.0707058004967610E+01
N    1.2052395957589942E+01    2.3988377714629554E+01   -3.0461464906831083E+01
N    1.4225183433412058E+01    2.5290112050753809E+01   -3.0470695016061068E+01
N    1.2092133782710212E+01    2.6546068553480559E+01   -3.0533038373998945E+01
N    1.4258845822146769E+01    2.7826146928623540E+01   -3.0432523991446200E+01
N    1.2086153621325085E+01    2.9037701732026086E+01   -3.0389852799891077E+01
N    1.4287925981010847E+01    3.0304168416215113E+01   -3.0521874916664199E+01
N    1.2076323024923969E+01    3.1567261721296777E+01   -3.0369506550903559E+01
N    1.4322136995728499E+01    3.2812836981999190E+01   -3.0277684108387014E+01
N    1.6487717942833072E+01    2.1462266260774097E+01   -3.0968140424304252E+01
N    1.8637296431284316E+01    2.2750326321992919E+01   -3.1000292775419410E+01
N    1.6405662524310134E+01    2.3946294925651685E+01   -3.0673421761738922E+01
N    1.8572927037531180E+01    2.5218314849405211E+01   -3.0857157240164536E+01
N    1.6413501277739556E+01    2.6510173325716469E+01   -3.0654188669439922E+01
N    1.8526499582086871E+01    2.7720722320058002E+01   -3.0592811841803822E+01
N    1.6396644247019747E+01    2.9000084972761652E+01   -3.0655261427036361E+01
N    1.8610674310701530E+01    3.0241945498729990E+01   -3.0510551276005639E+01
N    1.6434413961378063E+01    3.1594449994651669E+01   -3.0448329473956697E+01
N    1.8587092893712402E+01    3.2773752545887135E+01   -3.0345670774349134E+01
N    2.0848004740210705E+01    2.1460327940864754E+01   -3.1182000002611140E+01
N    2.2984712540729859E+01    2.2716434149983716E+01   -3.0980232405102832E+01
N    2.0816178977161979E+01    2.4013973405122368E+01   -3.0992486411426448E+01
N    2.2932668610824766E+01    2.5246163663449376E+01   -3.0693812203282146E+01
N    2.0693246781705714E+01    2.6509195631594284E+01   -3.0789586345582766E+01
N    2.2924357254197542E+01    2.7771433163809334E+01   -3.0733530967361084E+01
N    2.0775564165577130E+01    2.8968347896332826E+01   -3.0474429627230535E+01
N    2.2925567174573985E+01    3.0300616140585561E+01   -3.0584774540198865E+01
N    2.0755311093716188E+01    3.1539399165389280E+01   -3.0437767996542654E+01
N    2.2876864059772196E+01    3.2754221412054775E+01   -3.0670617848929975E+01
O   -1.5436095586744440E+01   -1.8962641407279214E+01   -1.4222124276300315E+01
H   -1.6026878020540043E+01   -1.8228195313250797E+01   -1.4312173568613183E+01
H   -1.5878628276656595E+01   -1.9579758240172399E+01   -1.3655773381339147E+01
O   -3.8256685177739961E+01   -5.0140427357938457E+01   -2.6813604642268071E+01
H   -3.7945415280277558E+01   -5.0424730518512668E+01   -2.7706364795970632E+01
H   -3.7779992893948560E+01   -5.0626492217651112E+01   -2.6126251501260601E+01
O    3.2906225428795771E+01   -5.1677578081140076E+01   -1.8298756432150199E+01
H    3.2650113479745251E+01   -5.2639788726311046E+01   -1.8398431135770046E+01
H    3.2974787836376436E+01   -5.1297569647953388E+01   -1.9206177260390408E+01
O   -6.5035954547963621E+00   -3.3272908097664512E+01   -1.3839595704225221E+01
H   -6.5732012866092386E+00   -3.3078989055121781E+01   -1.4793831454625709E+01
H   -5.5973089716321800E+00   -3.3579763860582894E+01   -1.3750840737949050E+01
O   -1.7337713885268869E+01   -1.3534222529165582E+01   -2.3012326177201814E+01
H   -1.6474556367360524E+01   -1.3100814170936360E+01   -2.3262241268256911E+01
H   -1.7237889728439750E+01   -1.4500905695407653E+01   -2.3114000531746406E+01
O    8.1391025468358738E+00   -2.1451084736021940E+01   -1.4931906967430699E+01
H    8.6410718219977944E+00   -2.1645101205118657E+01   -1.4106533117552301E+01
H    7.6199416882899724E+00   -2.0629426437713605E+01   -1.4823122349323882E+01
O   -2.2688324007860068E+01    2.4430306902607846E+01   -1.9695612291573315E+01
H   -2.2361139493621678E+01    2.3483181825726238E+01   -1.9764253124590098E+01
H   -2.1916442384869047E+01    2.4997573285083327E+01   -1.9397574331433496E+01
O   -4.8496829631038828E+01    9.2770238286851436E-01   -2.6093515524276732E+01
H   -4.8357424684219112E+01    1.5987630722433723E+00   -2.6765216686921388E+01
H   -4.9163858098729648E+01    2.8902470082850679E-01   -2.6416786161300948E+01
O    4.5965430875267764E+01   -1.6655693803475675E+01   -2.0670514663382654E+01
H    4.5158800733074898E+01   -1.7198027713151333E+01   -2.0737723278067723E+01
H    4.5983578899440310E+01   -1.6096144920603244E+01   -2.1465010552363221E+01
O   -3.4418740259580424E+01   -3.6187245679099709E+00   -2.2751684266276467E+01
H   -3.4866483404796831E+01   -2.7476287135598132E+00   -2.2503467711692945E+01
H   -3.5236909824648293E+01   -4.1452312493614265E+00   -2.2947906049272500E+01
O   -4.2234407569195227E+01   -4.6783314654531260E+01   -1.2703315176628026E+01
H   -4.2666673738418105E+01   -4.7479340796427557E+01   -1.2096414131007194E+01
H   -4.1295392405007547E+01   -4.7109929839991253E+01   -1.2864078212315503E+01
O    7.7079795842579397E+00   -7.7484433796998033E+01   -1.4570645326082035E+01
H    8.6560594288694848E+00   -7.7747107058547314E+01   -1.4562082468794586E+01
H    7.4644625394597757E+00   -7.6845790244913744E+01   -1.3826593281003985E+01
O    5.9121239743686537E+01    2.4102340897608112E+01   -2.0914542544005190E+01
H    5.9992217949691820E+01    2.4593292640863670E+01   -2.1160366123680173E+01
H    5.9173458107624029E+01    2.3091404555680700E+01   -2.0966025715287721E+01
O    1.4459694282068945E+01    8.3654782964073263E+01   -1.6787669641530140E+01
H    1.4500294854362549E+01    8.4329432721829590E+01   -1.6067480114846870E+01
H    1.4317659268375802E+01    8.2862743132581045E+01   -1.6248935866883691E+01
O    9.1204585116680423E+00   -2.4259847933756856E+01   -1.1783949621386240E+01
H    9.6934821171489247E+00   -2.4640858504341313E+01   -1.2440945550057176E+01
H    8.2129308967652328E+00   -2.4690177519981322E+01   -1.1824394730550447E+01
O   -1.7701054348957260E+01   -1.0151434728767997E+01   -2.3228760442749834E+01
H   -1.6864636078419366E+01   -9.6583617101957948E+00   -2.3276235273319667E+01
H   -1.8118426671341279E+01   -1.0093090115586927E+01   -2.4112925766946972E+01
O   -2.9988458719015153E+01    2.1167367287017541E+01   -1.5158673165757291E+01
H   -3.0134911129750421E+01    2.1912065708138563E+01   -1.4533958589126279E+01
H   -2.9199119062287000E+01    2.1346947270903865E+01   -1.5627530252236646E+01
O    1.8366224406121840E+00   -3.9703277676697454E+01   -2.4139819640089989E+01
H    2.7425072154103791E+00   -3.9351900812910870E+01   -2.4123613426399405E+01
H    1.7620470144545601E+00   -3.9788544566402173E+01   -2.5072896670348985E+01
O   -3.2264139345427809E+00   -6.6570754883411620E-01   -1.6764995961382137E+01