 # Version information for this restart file 
 # current date 2020-01-20 23:55:46.953
 # current working dir /scratch/snx3000/gtocci/gtocci/MEMBRANES/AIMD_US_IONS_BN/aimd_us_iodide/us_14
 # Program compiled at                              Fri Nov 22 15:19:42 CET 2019
 # Program compiled on                                                  daint102
 # Program compiled for                                   CRAY_XC50-gfortran_gpu
 # Source code revision number                                       git:a698b45
 &GLOBAL
   PRINT_LEVEL  LOW
   PROJECT_NAME BNS
   RUN_TYPE  MD
   WALLTIME 86400
 &END GLOBAL
 &MOTION
   &MD
     ENSEMBLE  NVT
     STEPS  2000
     TIMESTEP     9.9999999999999989E-01
     STEP_START_VAL  42000
     TIME_START_VAL     4.1999999999989137E+04
     ECONS_START_VAL    -8.4830909863908983E+03
     TEMPERATURE     3.0000000000000000E+02
     TEMP_KIND  T
     &BAROSTAT
       PRESSURE     1.0000000000000000E+00
       TIMECON     9.9999999999999986E+01
       VIRIAL  Z
     &END BAROSTAT
     &THERMOSTAT
       TYPE  NOSE
       REGION  GLOBAL
       &NOSE
         LENGTH  4
         TIMECON     9.9999999999999986E+01
         MTS  2
         &COORD
               2.2707594450255034E-01   -8.3764949042082026E+00    2.5475128767258635E+01    3.2536544841778978E+00
         &END COORD
         &VELOCITY
              -3.8076756141890313E-06    1.5226856529528535E-04   -1.1349468836131881E-04    7.1112380526820862E-05
         &END VELOCITY
         &MASS
               7.0145132684705392E+07    1.6237299232570693E+04    1.6237299232570693E+04    1.6237299232570693E+04
         &END MASS
         &FORCE
              -6.1408050516231278E-10    4.1230464279789448E-09   -3.5324297873020492E-08   -4.5628969563872193E-08
         &END FORCE
       &END NOSE
     &END THERMOSTAT
     &AVERAGES  T
       &RESTART_AVERAGES
         ITIMES_START  1
         AVECPU     2.4114080892134091E+01
         AVEHUGONIOT     0.0000000000000000E+00
         AVETEMP_BARO     0.0000000000000000E+00
         AVEPOT    -8.4857799184938376E+03
         AVEKIN     2.0525522578683839E+00
         AVETEMP     3.0006665117165727E+02
         AVEKIN_QM     0.0000000000000000E+00
         AVETEMP_QM     0.0000000000000000E+00
         AVEVOL     2.2086622704881083E+05
         AVECELL_A     4.9287836997924984E+01
         AVECELL_B     4.7426456757032106E+01
         AVECELL_C     9.4486306644279694E+01
         AVEALPHA     9.0000000000000000E+01
         AVEBETA     9.0000000000000000E+01
         AVEGAMMA     9.0000000000000000E+01
         AVE_ECONS     3.5844877783259300E+01
         AVE_PRESS     0.0000000000000000E+00
         AVE_PXX     0.0000000000000000E+00
       &END RESTART_AVERAGES
     &END AVERAGES
     &PRINT
       &TEMP_KIND  SILENT
       &END TEMP_KIND
     &END PRINT
   &END MD
   &FREE_ENERGY
     &METADYN
       MIN_DISP    -1.0000000000000000E+00
       OLD_HILL_NUMBER  0
       OLD_HILL_STEP  0
       DO_HILLS  F
       STEP_START_VAL  42000
       NHILLS_START_VAL  0
       &METAVAR
         SCALE     1.0000000000000000E+00
         COLVAR  1
       &END METAVAR
       &PRINT
         &COLVAR  SILENT
           COMMON_ITERATION_LEVELS  3
           &EACH
             MD  1
           &END EACH
         &END COLVAR
       &END PRINT
     &END METADYN
   &END FREE_ENERGY
   &CONSTRAINT
     &COLLECTIVE
       COLVAR  1
       INTERMOLECULAR  T
       &RESTRAINT
         K     4.4625385281452931E-04
       &END RESTRAINT
     &END COLLECTIVE
     &COLVAR_RESTART
           1.3450416674151720E+01
     &END COLVAR_RESTART
   &END CONSTRAINT
   &PRINT
     &TRAJECTORY  SILENT
       &EACH
         MD  1
       &END EACH
     &END TRAJECTORY
     &VELOCITIES  SILENT
       &EACH
         MD  1
       &END EACH
     &END VELOCITIES
     &FORCES  SILENT
       UNIT eV*angstrom^-1
       &EACH
         MD  1
       &END EACH
     &END FORCES
     &RESTART  SILENT
       &EACH
         MD  1
       &END EACH
     &END RESTART
     &RESTART_HISTORY  SILENT
       &EACH
         MD  100
       &END EACH
     &END RESTART_HISTORY
   &END PRINT
 &END MOTION
 &FORCE_EVAL
   METHOD  QS
   &DFT
     BASIS_SET_FILE_NAME /users/gtocci/scratch_daint_3000/data_cp2k//BASIS_MOLOPT
     POTENTIAL_FILE_NAME /users/gtocci/scratch_daint_3000/data_cp2k//GTH_POTENTIALS
     WFN_RESTART_FILE_NAME ./BNS-RESTART.wfn
     CHARGE  -1
     &SCF
       MAX_SCF  10
       EPS_SCF     9.9999999999999995E-07
       SCF_GUESS  RESTART
       &OT  T
         MINIMIZER  DIIS
         PRECONDITIONER  FULL_KINETIC
       &END OT
       &OUTER_SCF  T
         EPS_SCF     9.9999999999999995E-07
         MAX_SCF  30
       &END OUTER_SCF
       &PRINT
         &RESTART  SILENT
           ADD_LAST  NUMERIC
           &EACH
             QS_SCF  50
           &END EACH
         &END RESTART
       &END PRINT
     &END SCF
     &QS
       MAP_CONSISTENT  T
       EXTRAPOLATION  ASPC
       EXTRAPOLATION_ORDER  4
     &END QS
     &MGRID
       NGRIDS  5
       CUTOFF     4.6000000000000000E+02
     &END MGRID
     &XC
       DENSITY_CUTOFF     1.0000000000000000E-10
       GRADIENT_CUTOFF     1.0000000000000000E-10
       TAU_CUTOFF     1.0000000000000000E-10
       &XC_GRID
         XC_DERIV  SPLINE2_SMOOTH
       &END XC_GRID
       &XC_FUNCTIONAL  NO_SHORTCUT
         &LIBXC  T
           FUNCTIONAL XC_GGA_X_OPTB88_VDW
         &END LIBXC
         &VWN  T
         &END VWN
       &END XC_FUNCTIONAL
       &VDW_POTENTIAL
         POTENTIAL_TYPE  NON_LOCAL
         &NON_LOCAL
           TYPE  DRSLL
           VERBOSE_OUTPUT  T
           KERNEL_FILE_NAME /users/gtocci/scratch_daint_3000/data_cp2k//vdW_kernel_table.dat
           CUTOFF     3.6000000000000000E+02
         &END NON_LOCAL
       &END VDW_POTENTIAL
     &END XC
     &REAL_TIME_PROPAGATION
       INITIAL_WFN  SCF_WFN
     &END REAL_TIME_PROPAGATION
     &PRINT
       &MULLIKEN  SILENT
         FILENAME =BNS.mulliken
       &END MULLIKEN
     &END PRINT
   &END DFT
   &SUBSYS
     &CELL
       A     2.6082000000000019E+01    0.0000000000000000E+00    0.0000000000000000E+00
       B     0.0000000000000000E+00    2.5097000000000001E+01    0.0000000000000000E+00
       C     0.0000000000000000E+00    0.0000000000000000E+00    5.0000000000000028E+01
       MULTIPLE_UNIT_CELL  1 1 1
     &END CELL
     &COORD
B   -1.2986606555812152E+01    4.7217251330275634E+00   -2.3363405631434908E+01
B   -1.0863537338605111E+01    6.0006352695128218E+00   -2.3393370025275097E+01
B   -1.2987858550809971E+01    7.2200172038216834E+00   -2.3234703744736766E+01
B   -1.0812817382719265E+01    8.4896741513668506E+00   -2.3419502904817122E+01
B   -1.3007200984891911E+01    9.7534826243356321E+00   -2.3227010154095066E+01
B   -1.0836543534839416E+01    1.0970564171191242E+01   -2.3624316881095844E+01
B   -1.2974380318747844E+01    1.2236780831207653E+01   -2.3295296206101064E+01
B   -1.0767281479477347E+01    1.3497391605936391E+01   -2.3578595480612417E+01
B   -1.2912591261680326E+01    1.4731459418935696E+01   -2.3300879729046791E+01
B   -1.0783243393522735E+01    1.6090907490756287E+01   -2.3516453344461244E+01
B   -8.6618261010236210E+00    4.7412905850494935E+00   -2.3304951932955433E+01
B   -6.4482321019100457E+00    5.9880910149342936E+00   -2.3192485120628632E+01
B   -8.7227070612398290E+00    7.2067833332516189E+00   -2.3303630131007054E+01
B   -6.4684582760880440E+00    8.4691029886651350E+00   -2.3144017355952187E+01
B   -8.6324274211391909E+00    9.7237705467470850E+00   -2.3491419450516968E+01
B   -6.4575026682501679E+00    1.0970916460995367E+01   -2.3345128058354192E+01
B   -8.5868925388240278E+00    1.2185292878702793E+01   -2.3541467147054579E+01
B   -6.4650658673574641E+00    1.3465436048718905E+01   -2.3308467892333670E+01
B   -8.6263963184006478E+00    1.4694412729186057E+01   -2.3590889443774358E+01
B   -6.4546818112650595E+00    1.5979865432701628E+01   -2.3376524608905488E+01
B   -4.3330336122261901E+00    4.6518447919077532E+00   -2.3150924374710993E+01
B   -2.1218505198414506E+00    5.9894414411758952E+00   -2.2753801354325173E+01
B   -4.3228551260784691E+00    7.2011941457207769E+00   -2.2897415497601035E+01
B   -2.1441790255329036E+00    8.4548896664279933E+00   -2.2786603957648865E+01
B   -4.2565548952443173E+00    9.7362009846411937E+00   -2.3013735924309508E+01
B   -2.1144139148268142E+00    1.0964214853759383E+01   -2.2911863114415588E+01
B   -4.2452762935311963E+00    1.2263608471665540E+01   -2.3142759900899794E+01
B   -2.0937214663831814E+00    1.3512556962167643E+01   -2.3040297497828504E+01
B   -4.3283033071602697E+00    1.4744645756345010E+01   -2.3070237429500288E+01
B   -2.1483371591783178E+00    1.6022066642588168E+01   -2.2844314808528136E+01
N   -1.1583911351022874E+01    4.7425926157732006E+00   -2.3350038649736142E+01
N   -9.4237110827435409E+00    6.0020434315712219E+00   -2.3223999879738120E+01
N   -1.1541373679959539E+01    7.2425215835644430E+00   -2.3305525392628414E+01
N   -9.3521948515586590E+00    8.4973721978068060E+00   -2.3427103126576768E+01
N   -1.1531025332621374E+01    9.7376155931911264E+00   -2.3418484408076250E+01
N   -9.3894835895243354E+00    1.0951496656285359E+01   -2.3661888997910225E+01
N   -1.1538371680273402E+01    1.2227583765108037E+01   -2.3566212006142383E+01
N   -9.3492143085224573E+00    1.3437276679034179E+01   -2.3638684488280340E+01
N   -1.1472730195627211E+01    1.4760685709006507E+01   -2.3499180849658497E+01
N   -9.3052954468502111E+00    1.5967851773315038E+01   -2.3506768970023536E+01
N   -7.1938531966282913E+00    4.6960492170130541E+00   -2.3315766208059905E+01
N   -5.0060631149395736E+00    5.9412596948744651E+00   -2.3084893112118372E+01
N   -7.2611853024053596E+00    7.2316888759039655E+00   -2.3174902410385499E+01
N   -5.0305194545077256E+00    8.4848688770619418E+00   -2.2988270005559837E+01
N   -7.1427384132099547E+00    9.6931247048087386E+00   -2.3412118668243224E+01
N   -4.9832800625379612E+00    1.0950820330613251E+01   -2.3198292797254251E+01
N   -7.1560985299079558E+00    1.2164215698539902E+01   -2.3494560905938787E+01
N   -5.0437428943697133E+00    1.3489183317489076E+01   -2.3159322206039445E+01
N   -7.1763801811339949E+00    1.4703785865308950E+01   -2.3489966833116959E+01
N   -5.0265492535575298E+00    1.5977949462391363E+01   -2.3102814876755779E+01
N   -2.8266541337817954E+00    4.6571389663651752E+00   -2.2925861534790819E+01
N   -6.6733573997098061E-01    6.0090760067977449E+00   -2.2707009476570096E+01
N   -2.8606352991976989E+00    7.2139696023990405E+00   -2.2721397393361194E+01
N   -6.6502704080238062E-01    8.4843302106259610E+00   -2.2790220245261523E+01
N   -2.8508080406086664E+00    9.6916190352254894E+00   -2.2832835699184344E+01
N   -6.5976133926442460E-01    1.1026869164944003E+01   -2.2770974154349748E+01
N   -2.8424254100547994E+00    1.2243332971678194E+01   -2.2957471219474737E+01
N   -6.3521730227942674E-01    1.3505852356728882E+01   -2.3062714633073018E+01
N   -2.8581722365332345E+00    1.4787299873543633E+01   -2.2978939477294738E+01
N   -6.7822429178859933E-01    1.5980023729524222E+01   -2.2831422548277018E+01
B   -1.2956829224315049E+01    1.7315691472946853E+01   -2.3344109343217706E+01
B   -1.0746273840880660E+01    1.8571933245984347E+01   -2.3603628194735776E+01
B   -1.2998426118128686E+01    1.9819376403558696E+01   -2.3502864718709112E+01
B   -1.0780464871255838E+01    2.1023532239628043E+01   -2.3560348993645231E+01
B   -1.2996998708585576E+01    2.2344005994328011E+01   -2.3342207204866561E+01
B   -1.0856573214618008E+01    2.3589121633904302E+01   -2.3306764963944726E+01
B   -1.3056069753761967E+01    2.4826985756736210E+01   -2.3245145866839600E+01
B   -1.0885009340602005E+01    2.6076671057597473E+01   -2.3164043752419694E+01
B   -1.3060583015323255E+01    2.7304747517644142E+01   -2.3148877877315417E+01
B   -1.0870269598877620E+01    2.8597067573336144E+01   -2.3210389226203162E+01
B   -8.6015061777403723E+00    1.7199742837899073E+01   -2.3499058347631628E+01
B   -6.4395108164725867E+00    1.8479343823697732E+01   -2.3252979684079385E+01
B   -8.6027304651990359E+00    1.9782358591446997E+01   -2.3398460423239651E+01
B   -6.4803506238289055E+00    2.1026691365971949E+01   -2.3157147689919412E+01
B   -8.6001617818318739E+00    2.2335486965651800E+01   -2.3270081994570038E+01
B   -6.4745431326631655E+00    2.3545788544466010E+01   -2.2971134860309910E+01
B   -8.6723401425461493E+00    2.4847011403179849E+01   -2.3115323803004056E+01
B   -6.4417699123763086E+00    2.6013554914537522E+01   -2.3092550890648035E+01
B   -8.7020742018608566E+00    2.7351259809675291E+01   -2.3081997987055381E+01
B   -6.5397666049938126E+00    2.8494345185751296E+01   -2.3144045528006640E+01
B   -4.3018901801653806E+00    1.7283576821670017E+01   -2.2970247506462101E+01
B   -2.1195274621867957E+00    1.8592814700022139E+01   -2.2705639764684811E+01
B   -4.3040947218162353E+00    1.9853716755368040E+01   -2.2931164090151512E+01
B   -2.0904227237669137E+00    2.1028549602595927E+01   -2.2611633562121405E+01
B   -4.2839707408161045E+00    2.2243877340584799E+01   -2.2912687855682467E+01
B   -2.0917063247043544E+00    2.3526244929027605E+01   -2.2896656454424782E+01
B   -4.2715293490982011E+00    2.4731173293690677E+01   -2.2993262784993682E+01
B   -2.1719360367134888E+00    2.6003234788639627E+01   -2.3207968040924811E+01
B   -4.3308740220080004E+00    2.7238566083012021E+01   -2.3146728624115276E+01
B   -2.1574470664826606E+00    2.8520611504670313E+01   -2.3194540279670420E+01
N   -1.1497521643848930E+01    1.7324724216842313E+01   -2.3543938210591449E+01
N   -9.3170924153060639E+00    1.8515968109753164E+01   -2.3526521749901853E+01
N   -1.1533379601007329E+01    1.9799635935024309E+01   -2.3717485874519788E+01
N   -9.3554867077898809E+00    2.1038590458494479E+01   -2.3488892888912559E+01
N   -1.1531398083375263E+01    2.2295495416688901E+01   -2.3459778597698847E+01
N   -9.3936232744296841E+00    2.3593584869041599E+01   -2.3257606575234909E+01
N   -1.1592490484108865E+01    2.4847432642228391E+01   -2.3309454535286850E+01
N   -9.3923401895937797E+00    2.6088324784625584E+01   -2.3046069148728172E+01
N   -1.1631012689548943E+01    2.7335864155999555E+01   -2.3178779475580658E+01
N   -9.4060407118819302E+00    2.8616108820601269E+01   -2.3227635327638168E+01
N   -7.1719471131905719E+00    1.7241750859628493E+01   -2.3367736273628886E+01
N   -5.0074300920732950E+00    1.8529538801600985E+01   -2.2977586181222382E+01
N   -7.1829826832468138E+00    1.9713573569361458E+01   -2.3371077707238797E+01
N   -5.0459508910690003E+00    2.1039150168631107E+01   -2.3040592253435307E+01
N   -7.2027209143842308E+00    2.2318418342199763E+01   -2.3140137049030439E+01
N   -5.0061428302642650E+00    2.3476553553638446E+01   -2.2987657171886095E+01
N   -7.2094238983508356E+00    2.4805428454403827E+01   -2.3041609863579129E+01
N   -4.9884447310190962E+00    2.6027513315146248E+01   -2.3084473999307011E+01
N   -7.2396150574760201E+00    2.7268516566647055E+01   -2.3163241298183603E+01
N   -5.0696019082135644E+00    2.8473583284563095E+01   -2.3284428661765670E+01
N   -2.8658127310573454E+00    1.7313121388734277E+01   -2.2876949108121224E+01
N   -6.2640719258725430E-01    1.8556826532672371E+01   -2.2755345964865342E+01
N   -2.8956834667912674E+00    1.9839860280174559E+01   -2.2594660465070667E+01
N   -6.7555160034912376E-01    2.1025012814449177E+01   -2.2539389838098508E+01
N   -2.8227259445464754E+00    2.2271470946817409E+01   -2.2763411447856843E+01
N   -6.6669515081028463E-01    2.3556614555721016E+01   -2.2789791854027122E+01
N   -2.8276496103292010E+00    2.4748122841751599E+01   -2.3131013218491432E+01
N   -6.9776742503711808E-01    2.6051068671704080E+01   -2.3356653793156607E+01
N   -2.8703486353441154E+00    2.7261002999779631E+01   -2.3247410180420438E+01
N   -6.8162390658103300E-01    2.8627806067659577E+01   -2.3270191704916556E+01
B    7.4900432464326677E-02    4.7422233837028029E+00   -2.3000475886145331E+01
B    2.2454851887408522E+00    5.9680524834031488E+00   -2.3071592363692869E+01
B    9.0580440428889103E-02    7.2836917656147984E+00   -2.2854878554623955E+01
B    2.2983456871462766E+00    8.4539297255863985E+00   -2.3077469049241866E+01
B    7.9501711583675833E-02    9.7754723005733499E+00   -2.2830939914320677E+01
B    2.2618583440989846E+00    1.0949180156968637E+01   -2.3117329072801976E+01
B    1.0832156789262966E-01    1.2288876201483054E+01   -2.3016711753722607E+01
B    2.2748117946994317E+00    1.3498607870092030E+01   -2.2930739027629347E+01
B    6.9745495266286373E-02    1.4722782261801603E+01   -2.2927996232454166E+01
B    2.2026225397203780E+00    1.6019443029242201E+01   -2.2792624003030845E+01
B    4.4115839821630214E+00    4.6656240699724707E+00   -2.3167680808989260E+01
B    6.5702967632216991E+00    5.9706708772691517E+00   -2.3052366231037734E+01
B    4.4524409394444797E+00    7.1728304291534339E+00   -2.2925282628615477E+01
B    6.5925794546904051E+00    8.4874251808306020E+00   -2.2919960021881888E+01
B    4.4373959819394999E+00    9.7268548975876747E+00   -2.2977075558535063E+01
B    6.6590627830529092E+00    1.0997233672900487E+01   -2.3054561342897625E+01
B    4.4054544459876315E+00    1.2234013166889993E+01   -2.3049664206230538E+01
B    6.5302100252084747E+00    1.3534973196842298E+01   -2.3054095048879507E+01
B    4.3964940233724281E+00    1.4792938133984086E+01   -2.2810167786184159E+01
B    6.6102893923405119E+00    1.5965547400294954E+01   -2.2807530892805818E+01
B    8.7684310813140360E+00    4.7607586589481699E+00   -2.3192484074189533E+01
B    1.0948359829428567E+01    5.9520903206960618E+00   -2.3145618286469698E+01
B    8.7505826000991735E+00    7.2287615865243771E+00   -2.2985734977181963E+01
B    1.0971093855407050E+01    8.4417220240853084E+00   -2.3015147783685233E+01
B    8.7565994773332765E+00    9.7391934827893891E+00   -2.3059657412979050E+01
B    1.0965249978158210E+01    1.0967847249217728E+01   -2.3162061211977104E+01
B    8.7639979265858550E+00    1.2290201622186416E+01   -2.3201019161588690E+01
B    1.0933049503103062E+01    1.3482677280970487E+01   -2.3197230912333726E+01
B    8.7385844970127380E+00    1.4758503751336411E+01   -2.3039803126034084E+01
B    1.0963102970519934E+01    1.5985901576449379E+01   -2.3131702014115373E+01
N    1.5258399847712276E+00    4.7175663525734333E+00   -2.3080017647699400E+01
N    3.7174435347619124E+00    5.9089077895057125E+00   -2.3040963376334574E+01
N    1.5592240703488891E+00    7.2337878604632753E+00   -2.3014080953196505E+01
N    3.7422833940394966E+00    8.4712446798634424E+00   -2.3024661205583520E+01
N    1.5813229294707709E+00    9.7366528763432978E+00   -2.3028976575617548E+01
N    3.7215401113680686E+00    1.0992192239979204E+01   -2.3175520978774362E+01
N    1.5596372778816414E+00    1.2230113455867906E+01   -2.3034484308940186E+01
N    3.6675280674882389E+00    1.3528128901490700E+01   -2.2894996127813467E+01
N    1.5057352310929943E+00    1.4724137894999561E+01   -2.2912023227970824E+01
N    3.6447352647106817E+00    1.6001237591137635E+01   -2.2715031646792720E+01
N    5.9037890327477465E+00    4.7588993909330135E+00   -2.3089827599857262E+01
N    8.0290640299569809E+00    5.9718386235228120E+00   -2.3186497250419684E+01
N    5.8557868620240887E+00    7.2313827040487064E+00   -2.2926193955625713E+01
N    8.0452535210027118E+00    8.5020212257428280E+00   -2.2956830648096631E+01
N    5.9239845450497564E+00    9.7345006312400049E+00   -2.3006961284295333E+01
N    8.0907923920566223E+00    1.1028881523918782E+01   -2.3194924968731890E+01
N    5.8782909357714406E+00    1.2236808997975048E+01   -2.3029006119662530E+01
N    7.9891325862920111E+00    1.3498912751455869E+01   -2.3110444154572182E+01
N    5.8373457906451787E+00    1.4779142063895543E+01   -2.2850175426611546E+01
N    8.0167491502342383E+00    1.6010089234006482E+01   -2.2889358090578323E+01
N    1.0207985278281322E+01    4.7088260649654590E+00   -2.3178726229892519E+01
N    1.2394581568572406E+01    5.9895882218948024E+00   -2.3302987645220984E+01
N    1.0217952973060594E+01    7.2290673089860507E+00   -2.2957971578218061E+01
N    1.2396351050705858E+01    8.4418563389276411E+00   -2.3087279491416837E+01
N    1.0224593009504810E+01    9.7039158691149900E+00   -2.3041103267821850E+01
N    1.2369226213252970E+01    1.1002257549015200E+01   -2.3205898287838490E+01
N    1.0234203833816499E+01    1.2209729251208573E+01   -2.3177213163764861E+01
N    1.2402038298191478E+01    1.3509403303362870E+01   -2.3299654164742556E+01
N    1.0208156462330571E+01    1.4749027649647408E+01   -2.3048315688996475E+01
N    1.2455780230810269E+01    1.6050925889942981E+01   -2.3234427380365617E+01
B    1.6532086979012126E-02    1.7305055160879380E+01   -2.2758730276576912E+01
B    2.2583091042138057E+00    1.8468822347431338E+01   -2.2648859640583439E+01
B    1.2607887514506258E-01    1.9799158746010825E+01   -2.2663570793164940E+01
B    2.2350313574750085E+00    2.1009651440083189E+01   -2.2715003919963515E+01
B    8.6060149064756966E-02    2.2304904961231667E+01   -2.2638033040725645E+01
B    2.2980882779890703E+00    2.3584818293810013E+01   -2.3042704358645373E+01
B    3.4323882264426057E-02    2.4827056029324538E+01   -2.3150051146321321E+01
B    2.2069603502356547E+00    2.6054764663680064E+01   -2.3357906110589656E+01
B    4.7682629308507855E-02    2.7291443526273309E+01   -2.3367120995358512E+01
B    2.2755843929124335E+00    2.8570343004512189E+01   -2.3250897503902380E+01
B    4.4121602095093158E+00    1.7231483217123849E+01   -2.2689730499966334E+01
B    6.6072005141663706E+00    1.8526378407844334E+01   -2.2830700453975037E+01
B    4.4606699818295255E+00    1.9756863306989665E+01   -2.2667192885015584E+01
B    6.5688898291081550E+00    2.1103417754087857E+01   -2.2967897014844645E+01
B    4.4440617907905251E+00    2.2305704933221584E+01   -2.2980105177986257E+01
B    6.6306322071058235E+00    2.3539965021688701E+01   -2.3048391482693930E+01
B    4.4184725101972697E+00    2.4798259474086635E+01   -2.3303424609647372E+01
B    6.5892530523351551E+00    2.6085130502209580E+01   -2.3208591631990203E+01
B    4.4113705643575249E+00    2.7322607817692223E+01   -2.3405739741450311E+01
B    6.6063406611685176E+00    2.8609507696787524E+01   -2.3220842094307059E+01
B    8.8201335904543026E+00    1.7209667984113107E+01   -2.2925722602560068E+01
B    1.0955280580627100E+01    1.8511897920725197E+01   -2.3172288139486117E+01
B    8.8200179257246596E+00    1.9767529071310431E+01   -2.2915891956721854E+01
B    1.0928811064494175E+01    2.0996464706255217E+01   -2.3127085071591377E+01
B    8.7500860021917770E+00    2.2323808898819397E+01   -2.2919453391550409E+01
B    1.0914515576172809E+01    2.3571589174718369E+01   -2.3077040933240262E+01
B    8.7734242299245562E+00    2.4845293907966393E+01   -2.3046891875528612E+01
B    1.0861258473407039E+01    2.6060944831968715E+01   -2.3110144671866344E+01
B    8.7542212180252381E+00    2.7346291798043033E+01   -2.3176695442374715E+01
B    1.0940733827075647E+01    2.8556100524431397E+01   -2.3049111882687232E+01
N    1.4353819593202450E+00    1.7243441191167598E+01   -2.2637957390346553E+01
N    3.7100278521993721E+00    1.8511565409584414E+01   -2.2670431094964883E+01
N    1.5945249042262830E+00    1.9765892313858551E+01   -2.2654201727917858E+01
N    3.7506521027637043E+00    2.1010894368436929E+01   -2.2677543490111468E+01
N    1.5483401644666102E+00    2.2309102560811091E+01   -2.2733890832224784E+01
N    3.7046794053415550E+00    2.3545282897706322E+01   -2.3240167227022109E+01
N    1.4806396131054391E+00    2.4830902471064398E+01   -2.3161281309938836E+01
N    3.6324643594469443E+00    2.6062015051620154E+01   -2.3493174286313991E+01
N    1.4895001215468588E+00    2.7322792265531110E+01   -2.3337083304232948E+01
N    3.6712092881482441E+00    2.8571635511859636E+01   -2.3367269145881640E+01
N    5.9007779586773399E+00    1.7251775684496462E+01   -2.2730921395296711E+01
N    8.0961406453027323E+00    1.8505558815811764E+01   -2.2817149920261812E+01
N    5.9076214715373583E+00    1.9777591836022726E+01   -2.2817601622946597E+01
N    8.0452001051726807E+00    2.1071345664796659E+01   -2.2917609486965056E+01
N    5.8601236476815295E+00    2.2306619023314667E+01   -2.3008106291569415E+01
N    8.0816233951475347E+00    2.3613168165936077E+01   -2.2896735553568590E+01
N    5.8631664719832575E+00    2.4810599389737781E+01   -2.3114490725375777E+01
N    7.9950058360404297E+00    2.6097469541347447E+01   -2.3151595834517387E+01
N    5.8605230057229214E+00    2.7344398938955294E+01   -2.3368722478305127E+01
N    8.0623988770675208E+00    2.8589487607203463E+01   -2.3220132881938685E+01
N    1.0253726017568900E+01    1.7214990515092065E+01   -2.3095407009030513E+01
N    1.2375225706357311E+01    1.8534276087030037E+01   -2.3412887716211948E+01
N    1.0232593076301768E+01    1.9769059365714508E+01   -2.3135831578267375E+01
N    1.2362279682397935E+01    2.1060920252064225E+01   -2.3337236600090126E+01
N    1.0194795213952837E+01    2.2300680715172156E+01   -2.3061271897338514E+01
N    1.2353018287181353E+01    2.3579870874982632E+01   -2.3195989455510084E+01
N    1.0174124326696539E+01    2.4792542260394477E+01   -2.3090597344237032E+01
N    1.2287966273873325E+01    2.6087830872086254E+01   -2.3138315866815084E+01
N    1.0197798473097103E+01    2.7275811303921174E+01   -2.3073617471548840E+01
N    1.2368020377664088E+01    2.8620193515193503E+01   -2.3108317509354571E+01
O    6.1717328897409969E+00    7.1510360735648106E+01   -1.1454979642142737E+01
H    5.2509642030706072E+00    7.1450129560876732E+01   -1.1837598436318354E+01
H    6.2416313559728929E+00    7.2418140103643950E+01   -1.1149978660324384E+01
O    9.1486039663045844E+01    9.9769966786062994E+01   -1.6810677068278093E+01
H    9.1557321298875380E+01    9.8828695047960153E+01   -1.6962813140435571E+01
H    9.1219410378059393E+01    9.9808274656530827E+01   -1.5841167936392505E+01
O    2.1435499330424737E+01    1.5052122389151074E+02   -8.2367202169432172E+00
H    2.0631523024206754E+01    1.5094289894025573E+02   -7.9190194716240425E+00
H    2.1879952655758633E+01    1.5031381812694184E+02   -7.3945565176870129E+00
O   -4.8390912661360510E+01    1.6886768662835206E+02   -1.3770294235567862E+01
H   -4.8059693867196714E+01    1.6813048748630064E+02   -1.3187236013425721E+01
H   -4.9231703041954752E+01    1.6854260444923838E+02   -1.4180189363697989E+01
O    1.2402326696664160E+01    4.6931550904304537E+01   -1.7752932318437932E+01
H    1.3155580651349345E+01    4.6362121412412911E+01   -1.7812778402724177E+01
H    1.1736394478030990E+01    4.6638954672034465E+01   -1.8479008478578155E+01
O   -5.4266887503039008E+01    9.6685621011891499E+01   -6.7973896531231839E+00
H   -5.4217201242573417E+01    9.6526970527133273E+01   -7.7556660054295969E+00
H   -5.3478499844345571E+01    9.6166470005793911E+01   -6.4942890268367242E+00
O    1.3056764270339814E+01    8.9444653167733037E+01   -9.9590280389347487E+00
H    1.4027808021979199E+01    8.9567609621592752E+01   -1.0039000839288079E+01
H    1.3056393335752054E+01    8.8712767669902050E+01   -9.3360999815647450E+00
O   -5.4407397972787535E+01    4.4560088995553526E+00   -5.2113833538768048E+00
H   -5.4792084639920510E+01    4.4588106007326607E+00   -4.3414653917278576E+00
H   -5.3381729807693944E+01    4.6228836824300208E+00   -5.0810336290854128E+00
O    3.3261871819938015E+01    6.7538230411294180E+01   -1.3667316131448622E+01
H    3.3118860334056833E+01    6.7651438727992712E+01   -1.4655204110783975E+01
H    3.3257635702486411E+01    6.8516567073012581E+01   -1.3367308138028493E+01
O   -2.5267378712653969E+01    5.0882212098836469E+01   -1.9865635157708972E+01
H   -2.6032128773800761E+01    5.1503847708358549E+01   -2.0196504184382956E+01
H   -2.5060658435725809E+01    5.1482727033289308E+01   -1.9107918559904295E+01
O   -7.2821860699630374E+00    1.2004662335507339E+01   -1.0523380165787694E+01
H   -7.7346192121844703E+00    1.2507976798507727E+01   -1.1177707244809522E+01
H   -7.6050295738255409E+00    1.1055958271683618E+01   -1.0594239667430635E+01
O   -9.4261428400444611E+00    6.4836437592833519E+01   -6.4278299878367990E+00
H   -8.5944024153035041E+00    6.4845535196334211E+01   -5.9855747641978008E+00
H   -9.3086376368819899E+00    6.5178929668899400E+01   -7.3937771890231172E+00
O   -1.5728387995028457E+00    3.9745882855232445E+01   -1.0772293639560891E+01
H   -6.9652574763228370E-01    3.9924569556266079E+01   -1.1140581134944849E+01
H   -1.9934089538218134E+00    3.9007633887093924E+01   -1.1233720914891345E+01
O    3.4042131956718158E+01    1.2820286672892911E+02   -1.9669402055117533E+01
H    3.3430829848650205E+01    1.2843776624644312E+02   -2.0343521483587686E+01
H    3.5050651499276825E+01    1.2825062096132851E+02   -1.9919287736715319E+01
O   -6.3061269506312094E+01    1.2076115281974545E+02   -1.1133787165463241E+01
H   -6.2837492633069687E+01    1.2043217647181434E+02   -1.0283052874201662E+01
H   -6.2578724154324469E+01    1.2163816867094917E+02   -1.1246123983946298E+01
O    4.3174961209049670E+01    4.1460083039053970E+01   -1.4331961610383496E+01
H    4.3610230073212897E+01    4.2056723691159490E+01   -1.5028351469597464E+01
H    4.2765078948838450E+01    4.1990649367786524E+01   -1.3586676957889576E+01
O   -2.1065395281242449E+01    4.9475137517845191E+01   -9.0077132183884334E+00
H   -2.1494740339547516E+01    4.8594877691095114E+01   -9.1251569722452572E+00
H   -2.0170152760964601E+01    4.9469568789963532E+01   -9.5081775552254939E+00
O   -2.5168165107274884E+01    4.7800334979918162E+01   -9.1841648753510974E+00
H   -2.4818631755103855E+01    4.8052016748069860E+01   -8.2373159122550117E+00
H   -2.5312363948616742E+01    4.8546417657904534E+01   -9.7108760180634235E+00
O    7.0410241369020625E+01    8.2598751017734671E+01   -8.4248566617391916E+00