 # Version information for this restart file 
 # current date 2019-01-28 05:12:59.530
 # current working dir /scratch/snx3000/gtocci/gtocci/MEMBRANES/AIMD_US_IONS_GRA/potassium/aimd_us_pot/us_27
 # Program compiled at                             Thu Oct 11 21:49:41 CEST 2018
 # Program compiled on                                                  daint104
 # Program compiled for                                   CRAY_XC50-gfortran_gpu
 # Source code revision number                                     git:be74c20a5
 &GLOBAL
   PRINT_LEVEL  LOW
   PROJECT_NAME GRAS
   RUN_TYPE  MD
   WALLTIME 10200
 &END GLOBAL
 &MOTION
   &MD
     ENSEMBLE  NVT
     STEPS  100000
     TIMESTEP     9.9999999999999989E-01
     STEP_START_VAL  41400
     TIME_START_VAL     4.1399999999989748E+04
     ECONS_START_VAL    -8.3206442044039613E+03
     TEMPERATURE     3.0000000000000000E+02
     TEMP_KIND  T
     &BAROSTAT
       PRESSURE     1.0000000000000000E+00
       TIMECON     9.9999999999999986E+01
       VIRIAL  Z
     &END BAROSTAT
     &THERMOSTAT
       TYPE  NOSE
       REGION  GLOBAL
       &NOSE
         LENGTH  4
         TIMECON     9.9999999999999986E+01
         MTS  2
         &COORD
               1.6870252272736405E-01   -2.2609882551630307E+01    2.7180441746979138E+01    4.4501941313541256E+00
         &END COORD
         &VELOCITY
              -8.7879289733509197E-07    1.8470724526755607E-04   -5.8564831024843670E-05   -4.0555428272283875E-05
         &END VELOCITY
         &MASS
               7.0145132684705392E+07    1.6237299232570693E+04    1.6237299232570693E+04    1.6237299232570693E+04
         &END MASS
         &FORCE
              -5.0400050526428823E-10   -5.5173777398428536E-08   -2.4393247395775954E-08   -5.5080174417136579E-08
         &END FORCE
       &END NOSE
     &END THERMOSTAT
     &AVERAGES  T
       &RESTART_AVERAGES
         ITIMES_START  1
         AVECPU     4.6668187294361985E+01
         AVEHUGONIOT     0.0000000000000000E+00
         AVETEMP_BARO     0.0000000000000000E+00
         AVEPOT    -8.3232558592455971E+03
         AVEKIN     2.0524487979023909E+00
         AVETEMP     3.0005152615576367E+02
         AVEKIN_QM     0.0000000000000000E+00
         AVETEMP_QM     0.0000000000000000E+00
         AVEVOL     2.1331414786628055E+05
         AVECELL_A     4.8437460238125148E+01
         AVECELL_B     4.6608961231944797E+01
         AVECELL_C     9.4486306644279480E+01
         AVEALPHA     9.0000000000000057E+01
         AVEBETA     9.0000000000000057E+01
         AVEGAMMA     9.0000000000000057E+01
         AVE_ECONS    -2.0242439436752431E+00
         AVE_PRESS     0.0000000000000000E+00
         AVE_PXX     0.0000000000000000E+00
       &END RESTART_AVERAGES
     &END AVERAGES
     &PRINT
       &TEMP_KIND  SILENT
       &END TEMP_KIND
     &END PRINT
   &END MD
   &FREE_ENERGY
     &METADYN
       MIN_DISP    -1.0000000000000000E+00
       OLD_HILL_NUMBER  0
       OLD_HILL_STEP  0
       DO_HILLS  F
       STEP_START_VAL  41400
       NHILLS_START_VAL  0
       &METAVAR
         SCALE     1.0000000000000000E+00
         COLVAR  1
       &END METAVAR
       &PRINT
         &COLVAR  SILENT
           COMMON_ITERATION_LEVELS  3
           &EACH
             MD  1
           &END EACH
         &END COLVAR
       &END PRINT
     &END METADYN
   &END FREE_ENERGY
   &CONSTRAINT
     &COLLECTIVE
       COLVAR  1
       INTERMOLECULAR  T
       &RESTRAINT
         K     4.4625385281452931E-04
       &END RESTRAINT
     &END COLLECTIVE
     &COLVAR_RESTART
           2.5511302793956190E+01
     &END COLVAR_RESTART
   &END CONSTRAINT
   &PRINT
     &TRAJECTORY  SILENT
       &EACH
         MD  1
       &END EACH
     &END TRAJECTORY
     &VELOCITIES  SILENT
       &EACH
         MD  1
       &END EACH
     &END VELOCITIES
     &FORCES  SILENT
       UNIT eV*angstrom^-1
       &EACH
         MD  1
       &END EACH
     &END FORCES
     &RESTART  SILENT
       &EACH
         MD  1
       &END EACH
     &END RESTART
     &RESTART_HISTORY  SILENT
       &EACH
         MD  100
       &END EACH
     &END RESTART_HISTORY
   &END PRINT
 &END MOTION
 &FORCE_EVAL
   METHOD  QS
   &DFT
     BASIS_SET_FILE_NAME /users/gtocci/scratch_daint_3000/data_cp2k//BASIS_MOLOPT
     POTENTIAL_FILE_NAME /users/gtocci/scratch_daint_3000/data_cp2k//GTH_POTENTIALS
     WFN_RESTART_FILE_NAME ./GRAS-RESTART.wfn
     CHARGE  1
     &SCF
       MAX_SCF  10
       EPS_SCF     9.9999999999999995E-07
       SCF_GUESS  RESTART
       &OT  T
         MINIMIZER  DIIS
         PRECONDITIONER  FULL_KINETIC
       &END OT
       &OUTER_SCF  T
         EPS_SCF     9.9999999999999995E-07
         MAX_SCF  30
       &END OUTER_SCF
       &PRINT
         &RESTART  SILENT
           ADD_LAST  NUMERIC
           &EACH
             QS_SCF  50
           &END EACH
         &END RESTART
       &END PRINT
     &END SCF
     &QS
       MAP_CONSISTENT  T
       EXTRAPOLATION  ASPC
       EXTRAPOLATION_ORDER  4
     &END QS
     &MGRID
       NGRIDS  5
       CUTOFF     4.6000000000000000E+02
     &END MGRID
     &XC
       DENSITY_CUTOFF     1.0000000000000000E-10
       GRADIENT_CUTOFF     1.0000000000000000E-10
       TAU_CUTOFF     1.0000000000000000E-10
       &XC_GRID
         XC_DERIV  SPLINE2_SMOOTH
       &END XC_GRID
       &XC_FUNCTIONAL  NO_SHORTCUT
         &LIBXC  T
           FUNCTIONAL XC_GGA_X_OPTB88_VDW
         &END LIBXC
         &VWN  T
         &END VWN
       &END XC_FUNCTIONAL
       &VDW_POTENTIAL
         POTENTIAL_TYPE  NON_LOCAL
         &NON_LOCAL
           TYPE  DRSLL
           VERBOSE_OUTPUT  T
           KERNEL_FILE_NAME /users/gtocci/scratch_daint_3000/data_cp2k//vdW_kernel_table.dat
         &END NON_LOCAL
       &END VDW_POTENTIAL
     &END XC
     &REAL_TIME_PROPAGATION
       INITIAL_WFN  SCF_WFN
     &END REAL_TIME_PROPAGATION
     &PRINT
       &MULLIKEN  SILENT
         FILENAME =GRAS.mulliken
       &END MULLIKEN
     &END PRINT
   &END DFT
   &SUBSYS
     &CELL
       A     2.5632000000000001E+01    0.0000000000000000E+00    0.0000000000000000E+00
       B     0.0000000000000000E+00    2.4664400000000022E+01    0.0000000000000000E+00
       C     0.0000000000000000E+00    0.0000000000000000E+00    5.0000000000000028E+01
       MULTIPLE_UNIT_CELL  1 1 1
     &END CELL
     &COORD
C    6.4722275945489152E+00    1.0030410300025689E+01    2.1456362158533526E+00
C    7.8771170524313012E+00    1.0048212724194526E+01    2.2429630700150862E+00
C    8.6058210147599361E+00    1.1276819409876342E+01    2.3214147676335521E+00
C    1.0057043441576287E+01    1.1292200198813273E+01    2.3093832016724294E+00
C    6.4838481558905796E+00    1.2466750886942506E+01    2.0255197800320310E+00
C    7.8798207322997103E+00    1.2516528132298996E+01    2.2702068328726814E+00
C    8.6246855982317570E+00    1.3753547566469161E+01    2.3634819874342341E+00
C    1.0026931011556442E+01    1.3771200987919167E+01    2.4012302887781689E+00
C    6.4900652102847216E+00    1.4982426353607373E+01    2.0714041629634985E+00
C    7.9080866339930447E+00    1.4969401187710480E+01    2.2336047969526174E+00
C    8.6188344170175046E+00    1.6208143478770200E+01    2.3370882509589710E+00
C    1.0053339539335930E+01    1.6228635679265210E+01    2.4370665954967916E+00
C    6.5147723017983630E+00    1.7462319134738646E+01    2.1155343660330854E+00
C    7.9238552862690650E+00    1.7467842745286976E+01    2.2636117963403617E+00
C    8.6281577347927403E+00    1.8738295737337946E+01    2.1855844061815315E+00
C    1.0054870060873363E+01    1.8742051754643715E+01    2.1497133629267156E+00
C    6.4781812148148834E+00    1.9940434976628485E+01    2.0301320793192406E+00
C    7.9131567878613680E+00    1.9970651090058805E+01    1.9857200001331756E+00
C    8.6107635155598441E+00    8.8547602288451461E+00    2.1478316186182411E+00
C    1.0034375753253538E+01    8.8633013753929522E+00    2.1547915816543015E+00
C    1.0779843899154137E+01    1.0090753963133734E+01    2.1765050006371780E+00
C    1.2225299490947956E+01    1.0074632512217352E+01    2.1555803711875159E+00
C    1.2933724312395224E+01    1.1301392301514440E+01    2.2449631870599664E+00
C    1.4378047542445106E+01    1.1297505437404556E+01    2.2090610510869277E+00
C    1.0735913861942628E+01    1.2565488140403025E+01    2.3234483653676627E+00
C    1.2196824718889490E+01    1.2543235920822619E+01    2.3492261111392199E+00
C    1.2918031059606161E+01    1.3760411624861506E+01    2.3302740252113368E+00
C    1.4368236056459327E+01    1.3758547755407902E+01    2.2498037716309165E+00
C    1.0762997197066689E+01    1.5012702075067310E+01    2.4366513057451047E+00
C    1.2211915345831065E+01    1.5028982577414196E+01    2.3362237452230361E+00
C    1.2901161541431618E+01    1.6261229681605951E+01    2.2874693854914545E+00
C    1.4298616246708235E+01    1.6255159761644343E+01    2.1045423386927169E+00
C    1.0751643618056203E+01    1.7490318639067670E+01    2.3000555786894545E+00
C    1.2179408141682719E+01    1.7470327619526362E+01    2.2112236685533944E+00
C    1.2882683534247919E+01    1.8717238081807100E+01    1.9908974893165030E+00
C    1.4296371659050763E+01    1.8684772167568070E+01    1.8955879823708319E+00
C    1.0751759960400474E+01    1.9967863297681983E+01    1.9373676541367844E+00
C    1.2177564838716131E+01    1.9948585001190430E+01    1.8622614599185772E+00
C    1.2915823548820679E+01    8.8250493322956576E+00    2.1554714474857204E+00
C    1.4332067917227135E+01    8.8346613343258600E+00    2.1115423900118317E+00
C    1.5065806405643011E+01    1.0074867513997656E+01    2.1502399496686837E+00
C    1.6478794190504811E+01    1.0105536369118633E+01    2.0577971663557091E+00
C    1.7218890063056445E+01    1.1307060765502960E+01    2.0166676305560935E+00
C    1.8635130246655923E+01    1.1324593087055252E+01    1.8898606474739206E+00
C    1.5046341798082729E+01    1.2527526207718138E+01    2.2582177698083283E+00
C    1.6455831653194625E+01    1.2527488871005820E+01    2.1504097520560315E+00
C    1.7140660918787059E+01    1.3779986198586442E+01    2.0020274640051814E+00
C    1.8588138089394779E+01    1.3771215247030961E+01    1.8532222132783978E+00
C    1.5047563246601234E+01    1.5028708933812862E+01    2.1382444960107101E+00
C    1.6463082633044255E+01    1.5051041867313129E+01    1.9706822241641300E+00
C    1.7188529261250952E+01    1.6225348750317647E+01    1.8513766780585412E+00
C    1.8599103786025626E+01    1.6207504037898044E+01    1.8005095282541539E+00
C    1.5033087747619184E+01    1.7443082588270642E+01    1.9449170795163422E+00
C    1.6452781574493041E+01    1.7418876570841558E+01    1.7723746141059118E+00
C    1.7157149504873612E+01    1.8648762729310128E+01    1.7366712690384969E+00
C    1.8586971162245099E+01    1.8640349681903210E+01    1.7437840282274990E+00
C    1.4984355757463497E+01    1.9885133123698502E+01    1.7971417155341516E+00
C    1.6438118385448824E+01    1.9905790227487710E+01    1.7877723071928080E+00
C    1.7158605209063847E+01    8.8667279548068514E+00    1.9342927424613043E+00
C    1.8606566507236671E+01    8.8357047164894471E+00    1.8619600471728837E+00
C    6.4815907512314661E+00    2.2448790129893659E+01    1.8409501878113426E+00
C    7.9012089595012371E+00    2.2434211678349836E+01    1.8007059191577437E+00
C    8.5999902328094056E+00    2.3678957668121992E+01    1.6956999498764851E+00
C    1.0001139691713364E+01    2.3651893080448772E+01    1.7081855831410437E+00
C    6.4927212339435254E+00    2.4895877859448941E+01    1.5154091524811841E+00
C    7.8993723277250156E+00    2.4940387343137633E+01    1.6192585014229799E+00
C    8.6385611424151314E+00    2.6132168176354444E+01    1.7418740043981780E+00
C    1.0063218850997634E+01    2.6119275955570746E+01    1.7948131833189263E+00
C    6.5001154388750217E+00    2.7346156785480186E+01    1.6809015059929646E+00
C    7.9305738364689713E+00    2.7379583563009469E+01    1.7866407281421708E+00
C    8.6605920511630661E+00    2.8596377919998918E+01    1.9384568735666672E+00
C    1.0068244912270872E+01    2.8570038580981784E+01    1.9619861534989258E+00
C    6.5276744918259535E+00    2.9815082873781421E+01    1.8302221301811521E+00
C    7.9715492986230920E+00    2.9829236223082756E+01    1.9537635896496817E+00
C    8.6692609075908145E+00    3.1082873620708348E+01    2.0067156657207255E+00
C    1.0093308478685547E+01    3.1055486161530062E+01    2.0518921080199264E+00
C    6.4792412171649616E+00    3.2257774348362290E+01    2.0902158200140937E+00
C    7.9023507185738699E+00    3.2289618320892849E+01    2.0827960116065003E+00
C    8.6007062629548443E+00    2.1193521571036847E+01    1.8495939097559781E+00
C    1.0036440442359472E+01    2.1177345140867267E+01    1.8168876142037782E+00
C    1.0743613066505491E+01    2.2423463729859844E+01    1.6732115919422634E+00
C    1.2138959265516384E+01    2.2398258361667772E+01    1.7146987684367450E+00
C    1.2880192478572690E+01    2.3613727562572610E+01    1.8159569002246583E+00
C    1.4299814015257065E+01    2.3607367131177178E+01    1.8171831683823048E+00
C    1.0744370483780289E+01    2.4884522941062865E+01    1.7806727627895040E+00
C    1.2186644099964049E+01    2.4877934970683050E+01    1.8915448638023513E+00
C    1.2923815578984145E+01    2.6115882997647120E+01    1.9318453832314368E+00
C    1.4315307059141610E+01    2.6113943633170383E+01    1.8886401696933302E+00
C    1.0775316368293200E+01    2.7348131901352726E+01    1.9547437929240397E+00
C    1.2200718484241200E+01    2.7364877698503971E+01    1.9613019842628083E+00
C    1.2883864287101067E+01    2.8585938741877168E+01    1.9158401578767847E+00
C    1.4335643555824339E+01    2.8594908929777617E+01    1.8553529939498830E+00
C    1.0786512391923885E+01    2.9821510937659767E+01    1.9796710729800633E+00
C    1.2213478948522843E+01    2.9856583223747325E+01    1.9435042223614709E+00
C    1.2878248826723016E+01    3.1064236121419643E+01    1.9277858870149112E+00
C    1.4332392410091744E+01    3.1058700284034892E+01    1.8744130167711668E+00
C    1.0776053315489138E+01    3.2294733999617748E+01    2.0995645395668974E+00
C    1.2190765288533012E+01    3.2315497161197847E+01    2.0115341120150405E+00
C    1.2865186637784634E+01    2.1173218328211426E+01    1.7327378715693011E+00
C    1.4268696364310458E+01    2.1117253552686446E+01    1.7494221309750817E+00
C    1.4993782647524331E+01    2.2352226411115801E+01    1.8169184277115469E+00
C    1.6429424656795746E+01    2.2385331055302220E+01    1.8446518519444997E+00
C    1.7155171144191925E+01    2.3669238577508782E+01    1.8784047451999577E+00
C    1.8595910426414658E+01    2.3652431405742981E+01    1.9300194494288343E+00
C    1.4987297083943151E+01    2.4892723477471318E+01    1.8723272766052015E+00
C    1.6408312736671036E+01    2.4922713034895441E+01    1.8022725668396764E+00
C    1.7108740764909733E+01    2.6151174321673615E+01    1.9117301289011770E+00
C    1.8558797511543592E+01    2.6122905865715204E+01    1.9131468730911925E+00
C    1.5036851491210415E+01    2.7331727976545643E+01    1.8531297319617774E+00
C    1.6455880271602503E+01    2.7357715542094944E+01    1.9244482321616971E+00
C    1.7138528787710417E+01    2.8591337011514749E+01    1.9347180509255359E+00
C    1.8572913105459129E+01    2.8585944981508455E+01    1.8059518079834345E+00
C    1.5034594744481801E+01    2.9850381273128143E+01    1.8791093621712223E+00
C    1.6466313161166340E+01    2.9850834133265224E+01    1.8908387796252653E+00
C    1.7211947273214427E+01    3.1068395719841519E+01    1.7694406940207079E+00
C    1.8620041641807155E+01    3.1048998903501740E+01    1.6423464900015339E+00
C    1.5058142815426955E+01    3.2286275864641432E+01    1.8695859365608134E+00
C    1.6467774756188465E+01    3.2312553393897950E+01    1.8125101262867731E+00
C    1.7156203719367138E+01    2.1145363204661557E+01    1.8330152232820633E+00
C    1.8591584827262075E+01    2.1159083477195590E+01    1.7975891304237270E+00
C    1.9344528090025630E+01    1.0055237928338110E+01    1.8676348244831695E+00
C    2.0787675045678700E+01    1.0073773378584354E+01    1.7141058400480673E+00
C    2.1468637722385115E+01    1.1289658518440557E+01    1.6230247432711744E+00
C    2.2903151260238651E+01    1.1340550026730874E+01    1.4984965720117407E+00
C    1.9312546879153150E+01    1.2545042585073752E+01    1.8049358526209747E+00
C    2.0730218023344008E+01    1.2549942074475664E+01    1.7013433962366569E+00
C    2.1425130791649512E+01    1.3805922227052017E+01    1.7144948197782242E+00
C    2.2877549223378526E+01    1.3812603343562808E+01    1.6208771519384155E+00
C    1.9301464394502002E+01    1.5003777241684464E+01    1.7971230643808493E+00
C    2.0745625547246867E+01    1.5084515329690445E+01    1.7051923559473392E+00
C    2.1494375851915887E+01    1.6270718806662472E+01    1.7004298551298842E+00
C    2.2916814826324998E+01    1.6283771764634533E+01    1.6283312613162104E+00
C    1.9313346883292546E+01    1.7443835380533400E+01    1.8023757544153425E+00
C    2.0768761580355299E+01    1.7485501266418787E+01    1.7829258652386892E+00
C    2.1464917764533535E+01    1.8720648275508445E+01    1.7252068565968282E+00
C    2.2901450326132004E+01    1.8729874306084202E+01    1.7021837721752533E+00
C    1.9264945197165229E+01    1.9898123112510937E+01    1.7084133341993215E+00
C    2.0716552237290447E+01    1.9920672647998174E+01    1.6985703174754996E+00
C    2.1482031656125976E+01    8.8419526043250638E+00    1.5960944997476463E+00
C    2.2915471075130803E+01    8.8826871322092771E+00    1.5268108572178347E+00
C    2.3616285948954829E+01    1.0108692770684703E+01    1.4377637408206021E+00
C    2.5047612285111228E+01    1.0051828003388875E+01    1.4063362301265905E+00
C    2.5744906169388763E+01    1.1326705146944370E+01    1.3803369393829341E+00
C    2.7164834336700853E+01    1.1331506770253577E+01    1.4093770374947248E+00
C    2.3612219329499116E+01    1.2586252980751022E+01    1.4707950279029829E+00
C    2.5032242147739034E+01    1.2581084538135887E+01    1.3399589064112893E+00
C    2.5789388566835893E+01    1.3826583343102349E+01    1.2905907995889354E+00
C    2.7204229074663857E+01    1.3809370786069307E+01    1.2899480288957623E+00
C    2.3622063647152295E+01    1.5047522684497761E+01    1.5816668228319681E+00
C    2.5043303168027133E+01    1.5030044915687782E+01    1.4821175237210702E+00
C    2.5772602827004803E+01    1.6256242182525380E+01    1.5857728905652841E+00
C    2.7199920709037364E+01    1.6271139601272264E+01    1.5893287446963704E+00
C    2.3616345265942428E+01    1.7543916248190342E+01    1.6286351175854301E+00
C    2.5063564236164538E+01    1.7495275469152602E+01    1.6334244791442398E+00
C    2.5783300950767767E+01    1.8716396565145239E+01    1.6698868229532544E+00
C    2.7212800335060006E+01    1.8721167650946771E+01    1.8037797869610717E+00
C    2.3601964420957881E+01    1.9948258525717094E+01    1.7617420045902912E+00
C    2.5023683373003021E+01    1.9943536807456017E+01    1.7138671251917914E+00
C    2.5747102905970451E+01    8.8303457151208473E+00    1.4851771925438133E+00
C    2.7144551366153554E+01    8.8472482510833430E+00    1.5657830013540210E+00
C    2.7857425306618619E+01    1.0100932207753898E+01    1.6055072872264711E+00
C    2.9280932329660821E+01    1.0099129704951677E+01    1.7229824822318529E+00
C    2.9970687347034595E+01    1.1325953330374089E+01    1.7459408724872987E+00
C    3.1387438233316395E+01    1.1241718268072683E+01    1.9898609508391414E+00
C    2.7897213751033295E+01    1.2585930630079465E+01    1.3886299339035686E+00
C    2.9285983224424768E+01    1.2587960521345527E+01    1.6095279828992208E+00
C    3.0057126447132688E+01    1.3792904800168708E+01    1.6672473974003026E+00
C    3.1439808612050765E+01    1.3724986450071340E+01    1.8876166299401027E+00
C    2.7927892310367572E+01    1.5032785135125559E+01    1.4600112667676355E+00
C    2.9356634681793313E+01    1.5024844981507302E+01    1.6089780129805176E+00
C    3.0041673276979370E+01    1.6251976817190364E+01    1.8276827720191302E+00
C    3.1446171700285735E+01    1.6205418206947911E+01    1.9809269741673594E+00
C    2.7904726111681072E+01    1.7484667812392697E+01    1.7872276113565306E+00
C    2.9308447419283024E+01    1.7481002659174159E+01    1.9066973297380667E+00
C    3.0018406324400686E+01    1.8703890061536669E+01    2.1495706258088196E+00
C    3.1420234205090765E+01    1.8671076675838894E+01    2.1555502545873688E+00
C    2.7864064658115414E+01    1.9978581116071467E+01    1.9096049477998547E+00
C    2.9263165363955139E+01    1.9960658578749076E+01    2.0802316851482461E+00
C    3.0005552027865754E+01    8.8533635492316964E+00    1.8568964293474941E+00
C    3.1379798203642121E+01    8.8082227497991461E+00    2.0898646622598811E+00
C    1.9283692576504944E+01    2.2404377536493495E+01    1.7541831425751131E+00
C    2.0712437868113017E+01    2.2410098695136131E+01    1.6169522052248748E+00
C    2.1416593527236671E+01    2.3628425217509466E+01    1.6515669627278116E+00
C    2.2828164220179328E+01    2.3636026781501485E+01    1.7039599615858119E+00
C    1.9260545462767762E+01    2.4869749475166596E+01    1.9210845389391376E+00
C    2.0699057527245067E+01    2.4880855970675864E+01    1.7669526650186986E+00
C    2.1444458292515939E+01    2.6120096041475769E+01    1.7310487186422556E+00
C    2.2847638568291536E+01    2.6098736829560657E+01    1.6282019149392135E+00
C    1.9262057709352050E+01    2.7357296380925806E+01    1.7860233355669304E+00
C    2.0727772581957183E+01    2.7369693841289234E+01    1.6693023656330619E+00
C    2.1425359015508693E+01    2.8589882571456936E+01    1.6047865464171709E+00
C    2.2854389103797342E+01    2.8597256415983317E+01    1.5591312313162360E+00
C    1.9261524987603060E+01    2.9798092701007157E+01    1.6403887561016206E+00
C    2.0704415265843728E+01    2.9794752015623200E+01    1.5925135790423595E+00
C    2.1434784939794934E+01    3.0992900932524535E+01    1.5444406739702836E+00
C    2.2854491538870562E+01    3.1077328538727986E+01    1.6038859927786651E+00
C    1.9306832308873354E+01    3.2303066226054987E+01    1.6393450362682624E+00
C    2.0737776943996352E+01    3.2279801051484910E+01    1.5623246691386903E+00
C    2.1417412068179640E+01    2.1162156354521699E+01    1.7062370828393150E+00
C    2.2877528437693513E+01    2.1194176281017810E+01    1.7594808112534888E+00
C    2.3537413786147422E+01    2.2433245428283577E+01    1.7562415738719617E+00
C    2.4968445739974786E+01    2.2411555855426883E+01    1.7026687964935168E+00
C    2.5683018284639118E+01    2.3659194043778459E+01    1.7149277880345541E+00
C    2.7117583574241628E+01    2.3669785802079755E+01    1.6559494159951678E+00
C    2.3551329705869001E+01    2.4877159478555932E+01    1.6839256627013433E+00
C    2.4988647174038366E+01    2.4884228175924711E+01    1.6818710462709192E+00
C    2.5696150026660280E+01    2.6140793192874323E+01    1.6641503963660675E+00
C    2.7138885740730082E+01    2.6124140654380081E+01    1.6224040787895493E+00
C    2.3526086610193605E+01    2.7346103969776010E+01    1.5598300145441453E+00
C    2.4969405053079946E+01    2.7370669842413502E+01    1.5799103354081852E+00
C    2.5692650180480435E+01    2.8579272392633925E+01    1.5290256385250101E+00
C    2.7145079714839767E+01    2.8556076733493473E+01    1.5193301652234739E+00
C    2.3599273080929969E+01    2.9822989887902285E+01    1.5505692042406027E+00
C    2.5034931384006505E+01    2.9823859026317322E+01    1.5386934702677362E+00
C    2.5746765337474848E+01    3.1047449468429871E+01    1.4697723688857169E+00
C    2.7142777676318246E+01    3.1057991548679880E+01    1.5447085637370768E+00
C    2.3608696766438424E+01    3.2293963120864710E+01    1.5971641909355194E+00
C    2.5015547715955094E+01    3.2286808296933287E+01    1.5528183564921054E+00
C    2.5707770321626160E+01    2.1163104877481882E+01    1.7269160701305093E+00
C    2.7151424845609721E+01    2.1187266362172799E+01    1.7314422727592895E+00
C    2.7861517879048431E+01    2.2403630513333550E+01    1.6933576169409530E+00
C    2.9286129214381958E+01    2.2424580406721699E+01    1.7872473339511290E+00
C    2.9989992021281378E+01    2.3657769069937228E+01    1.6557488246959042E+00
C    3.1441681811652309E+01    2.3669581722785356E+01    1.6588935015622257E+00
C    2.7815707429346929E+01    2.4905462849888124E+01    1.6345211324464397E+00
C    2.9297202753607319E+01    2.4857413289598945E+01    1.5238325042095504E+00
C    2.9995812471961120E+01    2.6132063463735697E+01    1.4761014995305253E+00
C    3.1403394393891652E+01    2.6102134496819541E+01    1.5667399686890928E+00
C    2.7906237582614629E+01    2.7346190021069166E+01    1.6266848427722513E+00
C    2.9316614125237500E+01    2.7360055096044039E+01    1.5592653746155816E+00
C    3.0006909631088156E+01    2.8634915782390195E+01    1.5574440797221221E+00
C    3.1444818434018867E+01    2.8596817518880666E+01    1.6910546910666981E+00
C    2.7858713040673191E+01    2.9815327333557079E+01    1.4930606051495015E+00
C    2.9283400548088675E+01    2.9843938670330107E+01    1.5469859682482470E+00
C    3.0001413690784961E+01    3.1059431561037599E+01    1.7311501713740725E+00
C    3.1409349509316076E+01    3.1002944787102450E+01    1.9256885904744108E+00
C    2.7871024088570739E+01    3.2282408839291946E+01    1.5807972654824503E+00
C    2.9290608247537506E+01    3.2292550275478796E+01    1.6903147314352416E+00
C    3.0008324485402717E+01    2.1196794659952271E+01    1.9812985088712969E+00
C    3.1409529544546714E+01    2.1203985702248477E+01    1.8904676882043314E+00
O    1.7395286033917819E+02   -7.2797231299440057E+01    1.4996026352270402E+01
H    1.7460665133836858E+02   -7.2042991373977401E+01    1.4978638942839419E+01
H    1.7330365904428274E+02   -7.2382357372878204E+01    1.5585076977718646E+01
O    1.7688528934792151E+02   -5.3114460677169582E+01    1.5699445090651166E+01
H    1.7746057601798825E+02   -5.2498837156488086E+01    1.5178323210233161E+01
H    1.7700487694180899E+02   -5.3950569910310001E+01    1.5157075468847841E+01
O    1.6739699488467829E+02   -9.0998983895719391E+01    1.1289368754268599E+01
H    1.6787041736633796E+02   -9.0367097192701024E+01    1.0743239374217948E+01
H    1.6804656543616116E+02   -9.1711638568457715E+01    1.1433358545859361E+01
O    2.5392160468109122E+02   -1.2851276281673600E+02    1.1772520521946468E+01
H    2.5390580560131789E+02   -1.2751255309441036E+02    1.1793943522951210E+01
H    2.5351761452074965E+02   -1.2862350573757115E+02    1.0790697614049561E+01
O    2.2546160773953346E+02    1.9419272805963118E+01    7.7962588664336581E+00
H    2.2500746822207006E+02    1.9953456499263062E+01    8.5540617405322816E+00
H    2.2533707155848776E+02    1.9836241108629618E+01    6.8724159873094495E+00
O    1.6788965109585328E+02   -1.0321477278962742E+02    7.8571400292475886E+00
H    1.6693708406698852E+02   -1.0298772739375391E+02    7.6401339079661161E+00
H    1.6800514180837510E+02   -1.0270822877263147E+02    8.6513129609720227E+00
O    1.8829281735838944E+02   -7.8978929108746001E+01    5.4479216360352298E+00
H    1.8922009210632118E+02   -7.8890100011934592E+01    5.0764398991929607E+00
H    1.8778878491066578E+02   -7.8141244884185227E+01    5.1083748039241970E+00
O    2.4172129261883975E+02   -1.6422375250281607E+02    1.8131140415987339E+01
H    2.4252340224674333E+02   -1.6368921261445627E+02    1.7766120007742167E+01
H    2.4145291061547894E+02   -1.6474849897188795E+02    1.7339199590594315E+01
O    5.5616511757320154E+01   -4.5967055340317792E+01    6.6083704786871742E+00
H    5.4805800356712226E+01   -4.6073067720301822E+01    7.1746007036742041E+00
H    5.5487967986413665E+01   -4.6689195379451917E+01    6.0002724835382848E+00
O    2.9191263376948740E+02   -1.2073026142892177E+01    9.4964023113254292E+00
H    2.9218417512919405E+02   -1.1305002614508624E+01    1.0101058105208516E+01
H    2.9138991804583486E+02   -1.1605138478527918E+01    8.7877073020537892E+00
O    2.0481205329863172E+02   -1.4047269188476161E+01    1.5558214853268984E+01
H    2.0464669918115467E+02   -1.3270064753690013E+01    1.6117609546476551E+01
H    2.0442158147462141E+02   -1.3755792231967170E+01    1.4701970863629089E+01
O    1.0044675389340183E+02   -3.7921900125887835E+00    1.8380845627413262E+01
H    1.0032469461408492E+02   -3.9856636587307266E+00    1.7381247644337488E+01
H    9.9707162869872661E+01   -4.2383074465105031E+00    1.8768274580582112E+01
O    1.0881149654206223E+02   -1.1647452870079076E+02    2.1016833602132731E+01
H    1.0862910007985479E+02   -1.1641561229821733E+02    2.1958147987246331E+01
H    1.0796520942283144E+02   -1.1613718801270829E+02    2.0588354685160169E+01
O    1.8266401812878320E+02   -1.4247012516155249E+02    5.0672223274091781E+00
H    1.8308965330783354E+02   -1.4288059300239627E+02    5.8428990725731254E+00
H    1.8297859199311563E+02   -1.4296455130911670E+02    4.2259935558240231E+00
O    9.2077948769685051E+01    1.0157254585774645E+02    1.0331583778797254E+01
H    9.2615374100545012E+01    1.0166011492653821E+02    1.1102690148075689E+01
H    9.1498733278380115E+01    1.0075094308679466E+02    1.0309050065414709E+01
O    1.8204985210909425E+02    3.3587986862832452E+01    1.3996787417370040E+01
H    1.8238956894540038E+02    3.4115616035734092E+01    1.4724871102430519E+01
H    1.8268456613574250E+02    3.3718191399165754E+01    1.3320086041353225E+01
O    1.7303492658588749E+02    7.7811297365938799E+01    1.2892775520703744E+01
H    1.7335304057823330E+02    7.8657224465872687E+01    1.2473684052813626E+01
H    1.7373672715493851E+02    7.7117189941090686E+01    1.2853780926175043E+01
O    2.2164270500402154E+02   -1.5320445764447305E+02    1.0542067700420912E+01
H    2.2153214209579525E+02   -1.5220815094001247E+02    1.0444508884936551E+01
H    2.2080273033371694E+02   -1.5365149872426394E+02    1.0313863559673967E+01
O    1.6390383700340712E+02   -8.7868877276790329E+01    5.5041486696009612E+00
H    1.6462083091882280E+02   -8.7231264252944527E+01    5.7411996908871030E+00