 # Version information for this restart file 
 # current date 2020-01-19 14:05:10.382
 # current working dir /scratch/snx3000/gtocci/gtocci/MEMBRANES/AIMD_US_IONS_BN/aimd_us_iodide/us_20
 # Program compiled at                              Fri Nov 22 15:19:42 CET 2019
 # Program compiled on                                                  daint102
 # Program compiled for                                   CRAY_XC50-gfortran_gpu
 # Source code revision number                                       git:a698b45
 &GLOBAL
   PRINT_LEVEL  LOW
   PROJECT_NAME BNS
   RUN_TYPE  MD
   WALLTIME 86400
 &END GLOBAL
 &MOTION
   &MD
     ENSEMBLE  NVT
     STEPS  2000
     TIMESTEP     9.9999999999999989E-01
     STEP_START_VAL  42709
     TIME_START_VAL     4.2708999999988046E+04
     ECONS_START_VAL    -8.4830146166613486E+03
     TEMPERATURE     3.0000000000000000E+02
     TEMP_KIND  T
     &BAROSTAT
       PRESSURE     1.0000000000000000E+00
       TIMECON     9.9999999999999986E+01
       VIRIAL  Z
     &END BAROSTAT
     &THERMOSTAT
       TYPE  NOSE
       REGION  GLOBAL
       &NOSE
         LENGTH  4
         TIMECON     9.9999999999999986E+01
         MTS  2
         &COORD
               3.1993414178204499E-01    1.8542182481184373E+01   -2.1082251274193808E+01   -1.4992275434309055E+00
         &END COORD
         &VELOCITY
               3.0729819723985886E-06    1.0732497995415175E-04   -1.4816497302902454E-04    4.3122161989032612E-05
         &END VELOCITY
         &MASS
               7.0145132684705392E+07    1.6237299232570693E+04    1.6237299232570693E+04    1.6237299232570693E+04
         &END MASS
         &FORCE
               6.7926591789031896E-10   -1.7715311214498441E-08   -4.6991362527945991E-08   -3.6557154617413503E-08
         &END FORCE
       &END NOSE
     &END THERMOSTAT
     &AVERAGES  T
       &RESTART_AVERAGES
         ITIMES_START  1
         AVECPU     2.4099827857926968E+01
         AVEHUGONIOT     0.0000000000000000E+00
         AVETEMP_BARO     0.0000000000000000E+00
         AVEPOT    -8.4857979254523616E+03
         AVEKIN     2.0531684181246157E+00
         AVETEMP     3.0015672885127037E+02
         AVEKIN_QM     0.0000000000000000E+00
         AVETEMP_QM     0.0000000000000000E+00
         AVEVOL     2.2086622704881188E+05
         AVECELL_A     4.9287836997924970E+01
         AVECELL_B     4.7426456757032106E+01
         AVECELL_C     9.4486306644279694E+01
         AVEALPHA     9.0000000000000000E+01
         AVEBETA     9.0000000000000000E+01
         AVEGAMMA     9.0000000000000000E+01
         AVE_ECONS     5.2068918508806917E+01
         AVE_PRESS     0.0000000000000000E+00
         AVE_PXX     0.0000000000000000E+00
       &END RESTART_AVERAGES
     &END AVERAGES
     &PRINT
       &TEMP_KIND  SILENT
       &END TEMP_KIND
     &END PRINT
   &END MD
   &FREE_ENERGY
     &METADYN
       MIN_DISP    -1.0000000000000000E+00
       OLD_HILL_NUMBER  0
       OLD_HILL_STEP  0
       DO_HILLS  F
       STEP_START_VAL  42709
       NHILLS_START_VAL  0
       &METAVAR
         SCALE     1.0000000000000000E+00
         COLVAR  1
       &END METAVAR
       &PRINT
         &COLVAR  SILENT
           COMMON_ITERATION_LEVELS  3
           &EACH
             MD  1
           &END EACH
         &END COLVAR
       &END PRINT
     &END METADYN
   &END FREE_ENERGY
   &CONSTRAINT
     &COLLECTIVE
       COLVAR  1
       INTERMOLECULAR  T
       &RESTRAINT
         K     4.4625385281452931E-04
       &END RESTRAINT
     &END COLLECTIVE
     &COLVAR_RESTART
           1.9119595072808650E+01
     &END COLVAR_RESTART
   &END CONSTRAINT
   &PRINT
     &TRAJECTORY  SILENT
       &EACH
         MD  1
       &END EACH
     &END TRAJECTORY
     &VELOCITIES  SILENT
       &EACH
         MD  1
       &END EACH
     &END VELOCITIES
     &FORCES  SILENT
       UNIT eV*angstrom^-1
       &EACH
         MD  1
       &END EACH
     &END FORCES
     &RESTART  SILENT
       &EACH
         MD  1
       &END EACH
     &END RESTART
     &RESTART_HISTORY  SILENT
       &EACH
         MD  100
       &END EACH
     &END RESTART_HISTORY
   &END PRINT
 &END MOTION
 &FORCE_EVAL
   METHOD  QS
   &DFT
     BASIS_SET_FILE_NAME /users/gtocci/scratch_daint_3000/data_cp2k//BASIS_MOLOPT
     POTENTIAL_FILE_NAME /users/gtocci/scratch_daint_3000/data_cp2k//GTH_POTENTIALS
     WFN_RESTART_FILE_NAME ./BNS-RESTART.wfn
     CHARGE  -1
     &SCF
       MAX_SCF  10
       EPS_SCF     9.9999999999999995E-07
       SCF_GUESS  RESTART
       &OT  T
         MINIMIZER  DIIS
         PRECONDITIONER  FULL_KINETIC
       &END OT
       &OUTER_SCF  T
         EPS_SCF     9.9999999999999995E-07
         MAX_SCF  30
       &END OUTER_SCF
       &PRINT
         &RESTART  SILENT
           ADD_LAST  NUMERIC
           &EACH
             QS_SCF  50
           &END EACH
         &END RESTART
       &END PRINT
     &END SCF
     &QS
       MAP_CONSISTENT  T
       EXTRAPOLATION  ASPC
       EXTRAPOLATION_ORDER  4
     &END QS
     &MGRID
       NGRIDS  5
       CUTOFF     4.6000000000000000E+02
     &END MGRID
     &XC
       DENSITY_CUTOFF     1.0000000000000000E-10
       GRADIENT_CUTOFF     1.0000000000000000E-10
       TAU_CUTOFF     1.0000000000000000E-10
       &XC_GRID
         XC_DERIV  SPLINE2_SMOOTH
       &END XC_GRID
       &XC_FUNCTIONAL  NO_SHORTCUT
         &LIBXC  T
           FUNCTIONAL XC_GGA_X_OPTB88_VDW
         &END LIBXC
         &VWN  T
         &END VWN
       &END XC_FUNCTIONAL
       &VDW_POTENTIAL
         POTENTIAL_TYPE  NON_LOCAL
         &NON_LOCAL
           TYPE  DRSLL
           VERBOSE_OUTPUT  T
           KERNEL_FILE_NAME /users/gtocci/scratch_daint_3000/data_cp2k//vdW_kernel_table.dat
           CUTOFF     3.6000000000000000E+02
         &END NON_LOCAL
       &END VDW_POTENTIAL
     &END XC
     &REAL_TIME_PROPAGATION
       INITIAL_WFN  SCF_WFN
     &END REAL_TIME_PROPAGATION
     &PRINT
       &MULLIKEN  SILENT
         FILENAME =BNS.mulliken
       &END MULLIKEN
     &END PRINT
   &END DFT
   &SUBSYS
     &CELL
       A     2.6082000000000019E+01    0.0000000000000000E+00    0.0000000000000000E+00
       B     0.0000000000000000E+00    2.5097000000000001E+01    0.0000000000000000E+00
       C     0.0000000000000000E+00    0.0000000000000000E+00    5.0000000000000028E+01
       MULTIPLE_UNIT_CELL  1 1 1
     &END CELL
     &COORD
B   -9.0514088598392597E+00    8.6658410856183554E+00   -4.0177602935930814E+01
B   -6.8382935422275866E+00    9.8908760899040402E+00   -4.0015226240404331E+01
B   -9.0373286663179346E+00    1.1196550030357651E+01   -4.0041518445284133E+01
B   -6.9161964751300049E+00    1.2406520199430377E+01   -3.9732432878537864E+01
B   -9.1267547485893932E+00    1.3672748803807865E+01   -3.9846026944663635E+01
B   -6.9294620090009200E+00    1.4930088249161853E+01   -3.9706637090278974E+01
B   -9.0719133640368774E+00    1.6177429869313912E+01   -3.9724312556995521E+01
B   -6.8786675135520658E+00    1.7467935911466682E+01   -3.9756946272291749E+01
B   -9.0743044942346192E+00    1.8735313554800854E+01   -3.9641542266318055E+01
B   -6.8446373515989789E+00    1.9957396705060450E+01   -3.9751765103701572E+01
B   -4.7208330822753712E+00    8.6279954570638751E+00   -3.9921258097664946E+01
B   -2.5736492708504084E+00    9.8298838188615800E+00   -3.9653227656834368E+01
B   -4.7392821336394402E+00    1.1172918811744285E+01   -3.9702599791910622E+01
B   -2.5926262341610884E+00    1.2413957188423561E+01   -3.9642583245794569E+01
B   -4.7435832363061463E+00    1.3657974078275736E+01   -3.9707706365207031E+01
B   -2.5516702254813861E+00    1.4893275947933287E+01   -3.9548300751700289E+01
B   -4.7319214096045554E+00    1.6156962255060783E+01   -3.9702773499511054E+01
B   -2.5548256905162727E+00    1.7450790637301363E+01   -3.9724506907216494E+01
B   -4.7206834833533957E+00    1.8727395519036925E+01   -3.9795583914086833E+01
B   -2.5134025761931937E+00    1.9974334210976505E+01   -3.9874669126925447E+01
B   -4.3855052602706440E-01    8.6257837947028548E+00   -3.9711716088273882E+01
B    1.8417316550355405E+00    9.7808338612555215E+00   -3.9696053821617539E+01
B   -4.2931334636125867E-01    1.1134662347020395E+01   -3.9562498522940217E+01
B    1.8066735002044740E+00    1.2336795358115106E+01   -3.9625823313686375E+01
B   -3.6374372729360382E-01    1.3653058869740757E+01   -3.9616710561390228E+01
B    1.8034493025420641E+00    1.4909436296927545E+01   -3.9571436792697405E+01
B   -3.9163798292160751E-01    1.6196376420562299E+01   -3.9625066654994939E+01
B    1.8243900516517673E+00    1.7441301099913201E+01   -3.9598529632324443E+01
B   -3.4934592188616531E-01    1.8717298187196118E+01   -3.9824673795784669E+01
B    1.8375980544934674E+00    1.9974222459745985E+01   -3.9979936708829122E+01
N   -7.6178959555618695E+00    8.6550021633847187E+00   -4.0101339700576112E+01
N   -5.4157716526309212E+00    9.8967652374472408E+00   -3.9914669270203383E+01
N   -7.6089303705558615E+00    1.1178614231048321E+01   -3.9983160429152498E+01
N   -5.4582312664000945E+00    1.2403486776579545E+01   -3.9667075727310930E+01
N   -7.6768389254461589E+00    1.3684530807479625E+01   -3.9800904950740396E+01
N   -5.4974899591744029E+00    1.4924411448572270E+01   -3.9715957032295975E+01
N   -7.6136363332871495E+00    1.6163368489522057E+01   -3.9825546174288071E+01
N   -5.4394643380015832E+00    1.7435051881564469E+01   -3.9779970755556093E+01
N   -7.6172074426297502E+00    1.8692562636825716E+01   -3.9734258014714570E+01
N   -5.4103125596717350E+00    1.9988036788755885E+01   -3.9791959918445102E+01
N   -3.3103880100876681E+00    8.6390197052290745E+00   -3.9799931300618383E+01
N   -1.1078771771777902E+00    9.8568047471626947E+00   -3.9594623092799104E+01
N   -3.3329227472938792E+00    1.1140819455465609E+01   -3.9613930060275102E+01
N   -1.1357892846387272E+00    1.2404358435452837E+01   -3.9552987719222713E+01
N   -3.3264038462779886E+00    1.3687716008859510E+01   -3.9663854302629723E+01
N   -1.1001343850478185E+00    1.4921708055393848E+01   -3.9612320809537316E+01
N   -3.2872937708608490E+00    1.6159632801081354E+01   -3.9578791291455026E+01
N   -1.0488004774301782E+00    1.7479804834532136E+01   -3.9672354016444125E+01
N   -3.2290262279178048E+00    1.8732027923396767E+01   -3.9890331105318474E+01
N   -1.0531587053380185E+00    1.9973654410902959E+01   -3.9909970404432947E+01
N    1.0233268649148382E+00    8.5508461027663607E+00   -3.9720757630713862E+01
N    3.2870395189805306E+00    9.8644550865022040E+00   -3.9644577332301566E+01
N    1.0673569995989096E+00    1.1082821008610708E+01   -3.9603362394733871E+01
N    3.2660900430767716E+00    1.2382297885786429E+01   -3.9652966974054280E+01
N    1.1016370457243623E+00    1.3577020620381804E+01   -3.9658768057928967E+01
N    3.2563047381059254E+00    1.4932856482743748E+01   -3.9606312695898140E+01
N    1.0991011442205070E+00    1.6175603564629164E+01   -3.9538928275978044E+01
N    3.2853907613520295E+00    1.7421958666333598E+01   -3.9529994662488974E+01
N    1.1138745385364577E+00    1.8731051039519048E+01   -3.9722781402581198E+01
N    3.2557706132055646E+00    1.9922101493648839E+01   -4.0014914090218632E+01
B   -9.0115030396229940E+00    2.1203350868417864E+01   -3.9739158419172796E+01
B   -6.8864445859052372E+00    2.2471379659043482E+01   -3.9755720271020756E+01
B   -9.0676614874597679E+00    2.3670964855850894E+01   -3.9687897528019299E+01
B   -6.8837221920673013E+00    2.4953388570922314E+01   -3.9805814198308262E+01
B   -9.1117920815662572E+00    2.6144690546293173E+01   -3.9849893636251771E+01
B   -6.9326302893588911E+00    2.7477328783931988E+01   -3.9908336263021035E+01
B   -9.0906106607654440E+00    2.8713984978625525E+01   -3.9984145959478830E+01
B   -6.8892657095097967E+00    2.9999530330378715E+01   -4.0049970857977620E+01
B   -9.0868481319391954E+00    3.1237801914418547E+01   -4.0063206129780589E+01
B   -6.9121738506954884E+00    3.2482530186950697E+01   -4.0030689211846060E+01
B   -4.7423406841120155E+00    2.1270394481141555E+01   -3.9855121705427003E+01
B   -2.5145128588223935E+00    2.2478704384041688E+01   -3.9933848626542307E+01
B   -4.7147656183823683E+00    2.3714976592528004E+01   -3.9843459946752340E+01
B   -2.5894070616252920E+00    2.4991370101726911E+01   -3.9963541114562119E+01
B   -4.7131201969651384E+00    2.6224429003953706E+01   -4.0002777986596818E+01
B   -2.5788301832877547E+00    2.7496777520143116E+01   -4.0142442850115749E+01
B   -4.7818187307013584E+00    2.8760271002215070E+01   -4.0000054316548933E+01
B   -2.5773097722331957E+00    2.9972110088345371E+01   -4.0041733533614092E+01
B   -4.7284644597494436E+00    3.1268386418507252E+01   -3.9975963473321499E+01
B   -2.5393505674636301E+00    3.2477608159435739E+01   -3.9892682343949772E+01
B   -3.3442045049512076E-01    2.1230806230034926E+01   -4.0035500014896073E+01
B    1.8082702726474142E+00    2.2443778121230537E+01   -4.0269049691318898E+01
B   -3.3604078567612933E-01    2.3689363834894060E+01   -4.0111965944663716E+01
B    1.7999534174572593E+00    2.4931248994849359E+01   -4.0156729906169048E+01
B   -4.0880989386579858E-01    2.6193676319739541E+01   -4.0081606513680192E+01
B    1.7965215210021179E+00    2.7449440939527733E+01   -3.9958495411904437E+01
B   -3.3712929679811687E-01    2.8755022942426528E+01   -4.0126630730767360E+01
B    1.8341182067173041E+00    2.9983424921242857E+01   -3.9868444828160754E+01
B   -3.6039007587063060E-01    3.1211314274168647E+01   -3.9947918183726721E+01
B    1.7974702202357435E+00    3.2462159492644808E+01   -3.9803687314608673E+01
N   -7.6068764159669140E+00    2.1222469620301133E+01   -3.9775976267396196E+01
N   -5.4805588993612435E+00    2.2488203726264004E+01   -3.9880658107659713E+01
N   -7.6164958909170171E+00    2.3708847942991007E+01   -3.9758383003917025E+01
N   -5.4445986119717089E+00    2.4957518801183756E+01   -3.9860896898433055E+01
N   -7.6229853126761142E+00    2.6190808300158139E+01   -3.9921156844700974E+01
N   -5.4688923675358572E+00    2.7485258042431674E+01   -4.0043611964136318E+01
N   -7.6743591040035275E+00    2.8701692799218250E+01   -3.9978146061807152E+01
N   -5.4692106078851248E+00    2.9979694074825872E+01   -4.0098685299412082E+01
N   -7.6039243473676272E+00    3.1249585570005785E+01   -4.0117589005045936E+01
N   -5.4663151231863694E+00    3.2519441291932395E+01   -3.9907527237306716E+01
N   -3.2691850690284641E+00    2.1241434663040248E+01   -4.0015884756975233E+01
N   -1.0703746823809777E+00    2.2490699990027018E+01   -4.0004782349477274E+01
N   -3.2495252794632319E+00    2.3694396987446492E+01   -3.9878959939800630E+01
N   -1.1271812590665713E+00    2.4983462060478431E+01   -3.9996001851070233E+01
N   -3.2721927861370044E+00    2.6240194643240677E+01   -4.0068874163948941E+01
N   -1.1217560111230558E+00    2.7496500188189884E+01   -4.0197286717582791E+01
N   -3.2920093374310628E+00    2.8758530195397405E+01   -4.0134256508081720E+01
N   -1.1608161228884017E+00    3.0003936460382729E+01   -4.0017744305203379E+01
N   -3.2665707389509695E+00    3.1255362779861432E+01   -4.0042521229277170E+01
N   -1.1220870806665022E+00    3.2498254725853535E+01   -3.9917428045244122E+01
N    1.1100763512193859E+00    2.1233155625746186E+01   -4.0101932970149356E+01
N    3.2895709835913944E+00    2.2461032746246548E+01   -4.0362743208241127E+01
N    1.0788083198965508E+00    2.3704982527692813E+01   -4.0409173890551912E+01
N    3.2715246093244050E+00    2.4952758616507658E+01   -4.0014882131771920E+01
N    1.0231768133764534E+00    2.6222892138146712E+01   -4.0085075491395791E+01
N    3.2583200120468874E+00    2.7455926042925128E+01   -3.9728163772396904E+01
N    1.1290391660065344E+00    2.8778615998564803E+01   -4.0137969904871419E+01
N    3.3095103213153760E+00    2.9932403859108621E+01   -3.9621570614393136E+01
N    1.0633484605398098E+00    3.1204462310275733E+01   -3.9873707827622091E+01
N    3.2832079214576608E+00    3.2472301383799724E+01   -3.9687252692901389E+01
B    3.9728884848352242E+00    8.5625024668098852E+00   -3.9571755247510474E+01
B    6.1621794067749152E+00    9.8034201449629261E+00   -3.9431146887814158E+01
B    4.0695320533350907E+00    1.1101201430546638E+01   -3.9646163433514765E+01
B    6.1845459288342424E+00    1.2403599633311579E+01   -3.9405410816354149E+01
B    3.9847020894333145E+00    1.3651546827529748E+01   -3.9632633770056735E+01
B    6.1335291594035741E+00    1.4927510877658049E+01   -3.9496146846030342E+01
B    4.0124676674723849E+00    1.6156005111729318E+01   -3.9644489934101827E+01
B    6.1429192637529066E+00    1.7439344081452802E+01   -3.9710912854283137E+01
B    3.9649704933306671E+00    1.8662202506840888E+01   -3.9822421852731544E+01
B    6.1176844480314561E+00    1.9949113089129636E+01   -4.0066444148149131E+01
B    8.3338286434019899E+00    8.6268627234929856E+00   -3.9469140247143663E+01
B    1.0498883107728656E+01    9.8806545387028528E+00   -3.9655621254026606E+01
B    8.3179524197791448E+00    1.1151399709039959E+01   -3.9372794875457984E+01
B    1.0494137604782201E+01    1.2355540554284905E+01   -3.9526310540282665E+01
B    8.3312931251132767E+00    1.3687323697671813E+01   -3.9415342071390945E+01
B    1.0544793170266175E+01    1.4945411609423397E+01   -3.9422508621419517E+01
B    8.3265798246307572E+00    1.6188072617448363E+01   -3.9467562022070702E+01
B    1.0575681303593280E+01    1.7392957126512812E+01   -3.9580919749905853E+01
B    8.3003335654759205E+00    1.8672141993466219E+01   -3.9838453376352000E+01
B    1.0491579099513155E+01    1.9910850804251087E+01   -3.9854837753135271E+01
B    1.2639259666994235E+01    8.6012186043278138E+00   -3.9873209527461057E+01
B    1.4834507348916695E+01    9.9010880364843086E+00   -4.0141753213721877E+01
B    1.2619013931023520E+01    1.1113079319952075E+01   -3.9780081514603943E+01
B    1.4820459922716985E+01    1.2382893427533803E+01   -3.9860199208755766E+01
B    1.2708649623933905E+01    1.3612718159478169E+01   -3.9638989368066625E+01
B    1.4921011592142653E+01    1.4927633406893442E+01   -3.9596290189327384E+01
B    1.2658478617514755E+01    1.6086076770564642E+01   -3.9557770723813228E+01
B    1.4832261644680759E+01    1.7402229479385053E+01   -3.9699489463861696E+01
B    1.2701563637212292E+01    1.8616524320846864E+01   -3.9748660146866719E+01
B    1.4831346294289760E+01    1.9941562865027613E+01   -3.9720048332779548E+01
N    5.4213965584854638E+00    8.5411474807098724E+00   -3.9519840527390507E+01
N    7.5898476088498521E+00    9.8812986454714675E+00   -3.9398646977629703E+01
N    5.4784344329928469E+00    1.1092523840928518E+01   -3.9463818271782010E+01
N    7.6260406069551463E+00    1.2406009041601518E+01   -3.9322568259122754E+01
N    5.4432376121903063E+00    1.3640094159932712E+01   -3.9551850977881251E+01
N    7.5870354060235234E+00    1.4913273194177943E+01   -3.9405290568721504E+01
N    5.4276462682034721E+00    1.6164286984642910E+01   -3.9509453113837601E+01
N    7.5959422423282126E+00    1.7431456858214897E+01   -3.9761070014196385E+01
N    5.4033080519978043E+00    1.8688343895497212E+01   -3.9899770949380056E+01
N    7.5550129629442289E+00    1.9906175120993208E+01   -4.0081030076392295E+01
N    9.7572861828000139E+00    8.5904473370080012E+00   -3.9618671156669400E+01
N    1.1901252459057588E+01    9.8436558330352426E+00   -3.9864082366337279E+01
N    9.7751676415773865E+00    1.1119497548051649E+01   -3.9588146866726248E+01
N    1.1947726200908077E+01    1.2414624818284320E+01   -3.9688896526291821E+01
N    9.7836979349776954E+00    1.3656843156490154E+01   -3.9410543567000261E+01
N    1.1955904196329266E+01    1.4874805271496959E+01   -3.9518890140861743E+01
N    9.7957925499692564E+00    1.6175122436860519E+01   -3.9453286339179755E+01
N    1.2017574279195831E+01    1.7369613996985422E+01   -3.9549029446416519E+01
N    9.7805254443820466E+00    1.8615580816074210E+01   -3.9831539856527492E+01
N    1.1916741768414635E+01    1.9892871175920078E+01   -3.9792546651667820E+01
N    1.4110305997211796E+01    8.6366536252273161E+00   -4.0121025900212295E+01
N    1.6295696821907288E+01    9.9090589907045352E+00   -4.0317391610139651E+01
N    1.4064722045633763E+01    1.1097036043048757E+01   -3.9878552245871525E+01
N    1.6264393588726264E+01    1.2404177726554151E+01   -3.9863171619073078E+01
N    1.4161887901798636E+01    1.3650221170606287E+01   -3.9587268082403398E+01
N    1.6278939188819944E+01    1.4918455679704172E+01   -3.9796008525472942E+01
N    1.4142777605241550E+01    1.6139773386654824E+01   -3.9618958073205718E+01
N    1.6324044788227567E+01    1.7409787481044933E+01   -3.9534751742911808E+01
N    1.4146668390264562E+01    1.8671060974427871E+01   -3.9818747393684525E+01
N    1.6291292220823554E+01    1.9956609131850890E+01   -3.9782075916405731E+01
B    3.9888278396244061E+00    2.1175091358288665E+01   -4.0139464054101865E+01
B    6.1510260368058987E+00    2.2399760312594236E+01   -4.0161849115535134E+01
B    4.0208410554734035E+00    2.3732440952702262E+01   -4.0273356089418620E+01
B    6.1864246791611262E+00    2.4952140393534915E+01   -4.0080708294133011E+01
B    4.0012722224254329E+00    2.6243264710748917E+01   -3.9828950971520918E+01
B    6.1725911339409052E+00    2.7464382495966131E+01   -3.9631258515936139E+01
B    3.9931392256488865E+00    2.8666461318064215E+01   -3.9618840118860561E+01
B    6.1447188044565921E+00    2.9913321588599395E+01   -3.9507577546879197E+01
B    4.0055278617485257E+00    3.1216878465301111E+01   -3.9610392382455046E+01
B    6.1295553256278108E+00    3.2408013733184170E+01   -3.9481460638378060E+01
B    8.2911471155449785E+00    2.1216604261057373E+01   -4.0006812177925973E+01
B    1.0396052241332690E+01    2.2401937020532880E+01   -3.9868122658517919E+01
B    8.3249451256636586E+00    2.3719136324763795E+01   -4.0062692561759881E+01
B    1.0513990768301854E+01    2.4908340677761650E+01   -3.9962585695183748E+01
B    8.3047396724636968E+00    2.6219984054038584E+01   -3.9826838787977223E+01
B    1.0457404721109521E+01    2.7482847032844155E+01   -3.9954275227398767E+01
B    8.3035006887805416E+00    2.8726562486055659E+01   -3.9483810065938400E+01
B    1.0492176818448071E+01    2.9969198493778656E+01   -3.9798601123096354E+01
B    8.3118591826144304E+00    3.1268637493407006E+01   -3.9450014375411918E+01
B    1.0512032780090300E+01    3.2493719087292419E+01   -3.9683221538264483E+01
B    1.2594069140117574E+01    2.1204363775426827E+01   -3.9677650482618297E+01
B    1.4798529445831958E+01    2.2396778588730054E+01   -3.9646961652386821E+01
B    1.2641122931179860E+01    2.3684535774527344E+01   -3.9773453154059666E+01
B    1.4778538296480040E+01    2.4937487748407008E+01   -3.9763117321075320E+01
B    1.2667890528987574E+01    2.6244867156496994E+01   -4.0023542785292342E+01
B    1.4802070044951208E+01    2.7377055197130076E+01   -4.0118748387743778E+01
B    1.2678845720359831E+01    2.8661220897833701E+01   -4.0096465706012069E+01
B    1.4800578929805228E+01    2.9919166514349691E+01   -4.0065154990347253E+01
B    1.2667305642188900E+01    3.1143009885852280E+01   -3.9953446620358079E+01
B    1.4863751856300748E+01    3.2478726178467909E+01   -4.0099474433530425E+01
N    5.3980170531423530E+00    2.1169251710725611E+01   -4.0049037540342809E+01
N    7.5540866260791493E+00    2.2471635930045075E+01   -4.0133466878176854E+01
N    5.4466477327783558E+00    2.3688532659176108E+01   -4.0210769950252441E+01
N    7.6452598232064792E+00    2.4952597231284042E+01   -4.0034382586595370E+01
N    5.4746288929033291E+00    2.6192730999477057E+01   -3.9810273129867205E+01
N    7.6235809294582912E+00    2.7442708788493309E+01   -3.9521841336524389E+01
N    5.4643677457866788E+00    2.8658433440560419E+01   -3.9464180942625504E+01
N    7.6010924006718197E+00    2.9978290062075938E+01   -3.9430001252037989E+01
N    5.4426286545093880E+00    3.1141142339372575E+01   -3.9487600200402660E+01
N    7.6032977173710510E+00    3.2458995822787038E+01   -3.9499410698937716E+01
N    9.6953638396165136E+00    2.1134289867849212E+01   -3.9821578241739175E+01
N    1.1886938943601164E+01    2.2403927384015951E+01   -3.9753133754119403E+01
N    9.7267611936296046E+00    2.3679770023910887E+01   -3.9948487726263657E+01
N    1.1930372436896601E+01    2.4953330806637513E+01   -3.9946402404535000E+01
N    9.7663939304734377E+00    2.6217630635041303E+01   -3.9929644226123884E+01
N    1.1906916855802812E+01    2.7461483187581329E+01   -4.0149741666656823E+01
N    9.7740946492388332E+00    2.8752929381459694E+01   -3.9831484121935745E+01
N    1.1915351277908787E+01    2.9929228325984344E+01   -4.0016683747171591E+01
N    9.7649504891306371E+00    3.1242619412875612E+01   -3.9616986159529013E+01
N    1.1931593545594270E+01    3.2448639970889047E+01   -3.9944872783122385E+01
N    1.4084299432854790E+01    2.1221215472008772E+01   -3.9659467146585804E+01
N    1.6299142163458342E+01    2.2397296367474311E+01   -3.9551971460403387E+01
N    1.4097067415144901E+01    2.3663103404897580E+01   -3.9637846895271686E+01
N    1.6217008523520665E+01    2.4914822519952821E+01   -3.9744167027005361E+01
N    1.4086824081244899E+01    2.6195368266032673E+01   -3.9994882093844481E+01
N    1.6280665262049542E+01    2.7399087180057681E+01   -4.0008610802986645E+01
N    1.4103783010827367E+01    2.8666792857200974E+01   -4.0215963878520377E+01
N    1.6270484223788007E+01    2.9984332497506546E+01   -4.0013162133950999E+01
N    1.4075447403274675E+01    3.1220133748227433E+01   -4.0014257501519495E+01
N    1.6275671180585896E+01    3.2490217737978561E+01   -4.0118724001885944E+01
O    3.5119317206004375E+01    2.7163669837769071E+01   -2.5081925295580376E+01
H    3.5402074289006052E+01    2.6386759980782330E+01   -2.4498507203081068E+01
H    3.5754028086160275E+01    2.7122546959014795E+01   -2.5882767453169489E+01
O    1.4134010039561089E+01   -3.5258677080563004E+01   -3.2007607025005370E+01
H    1.4352711870811996E+01   -3.6079053660190809E+01   -3.2471384892632415E+01
H    1.3199160626367314E+01   -3.5222755716391525E+01   -3.1687372936588471E+01
O   -4.9874814876056099E+01    8.9236619214322772E+00   -2.4927946215876023E+01
H   -4.8974338016090151E+01    9.1807746477658192E+00   -2.4665484659464997E+01
H   -5.0385498710377036E+01    9.7428047591335556E+00   -2.5187531010885859E+01
O    2.9493122979409421E+00    2.8631130182817554E+01   -2.8186745349165204E+01
H    3.1559674889613261E+00    2.8251302118276509E+01   -2.7305188420555073E+01
H    2.3098990465627045E+00    2.9311340363960063E+01   -2.8060491816044554E+01
O   -5.1197852583260847E+01   -4.6665957338718179E+01   -3.6952807951822479E+01
H   -5.0315004465930883E+01   -4.6266095901004469E+01   -3.6852793356720596E+01
H   -5.1782348223946364E+01   -4.5870955101655760E+01   -3.6923434729990547E+01
O    4.4647168335611291E+01   -9.9170613746483607E+00   -2.6585029369727032E+01
H    4.4098044134675746E+01   -9.4914123657524083E+00   -2.5844067496152537E+01
H    4.5578511047309327E+01   -9.7212970977576845E+00   -2.6358591572713777E+01
O    2.8698397323297076E+01   -2.5604643445022603E+01   -2.9288621580341410E+01
H    2.8308313633051696E+01   -2.6355996959790353E+01   -2.9775289952299421E+01
H    2.9689544631647411E+01   -2.5675735883828469E+01   -2.9533769397015007E+01
O    1.2234386155993656E+01    2.7018743007674885E+01   -3.6395771143968354E+01
H    1.1357292477028368E+01    2.7497996760730111E+01   -3.6342145359625398E+01
H    1.2076284170423179E+01    2.6033532010528305E+01   -3.6453696712367119E+01
O   -7.7149224877934106E+00   -5.9031635852835773E+00   -3.5151181482116542E+01
H   -6.9562294722346154E+00   -5.5020877551086729E+00   -3.5629275588814416E+01
H   -7.1625568122513563E+00   -6.3413656806937864E+00   -3.4422077027504201E+01
O    8.3931166590998927E+01    4.2235083457001771E-01   -2.2991337325256804E+01
H    8.4268039814976547E+01    2.0620510169560133E-01   -2.3899787923487612E+01
H    8.3373897258271100E+01   -3.6541086707624221E-01   -2.2773411647177454E+01
O   -1.5902368687103685E+01   -1.0818912205754952E+01   -2.8639637068318795E+01
H   -1.6544225245641012E+01   -1.1370666746083776E+01   -2.9209962622248170E+01
H   -1.5181617558607904E+01   -1.1320702379883633E+01   -2.8117552216949878E+01
O   -7.3734693473671795E+00    1.5209857396957643E+01   -3.1472885350525093E+01
H   -7.6980774670120038E+00    1.5503708512926123E+01   -3.2393351898047200E+01
H   -7.2302582658966781E+00    1.6072383404376726E+01   -3.1040505316791105E+01
O    4.7774340733994073E+01   -5.5614613149199092E+00   -2.9086963518082030E+01
H    4.7175044351609756E+01   -6.3147700743239321E+00   -2.9252354147523345E+01
H    4.7284734087756320E+01   -4.7413698908850552E+00   -2.9105048720783639E+01
O   -3.2070071731254920E+01    9.0824118225068133E+00   -2.4328217435409449E+01
H   -3.1212221747137676E+01    9.4039247940705142E+00   -2.4796358564749710E+01
H   -3.2030610363915898E+01    9.6913471496186609E+00   -2.3475468177779920E+01
O   -3.4136050725037251E+01   -2.8913497419053941E-01   -3.6752867469423208E+01
H   -3.3756977707328971E+01   -1.2116544674985328E+00   -3.6712867674531282E+01
H   -3.4854779807605489E+01   -2.5817791022685382E-01   -3.7395494030451225E+01
O    4.3809691274509078E+01   -9.5181052889390152E+00   -3.4052807987561458E+01
H    4.2904034891580366E+01   -9.1449818772247262E+00   -3.3847001294340416E+01
H    4.3624437357995376E+01   -1.0291680537563163E+01   -3.4610325279295779E+01
O    2.1462603448510229E+01   -5.8889001846357630E+01   -2.6428300237003644E+01
H    2.1946130881022047E+01   -5.9131949703282885E+01   -2.7263504319148005E+01
H    2.1543758949667350E+01   -5.7917200869342402E+01   -2.6257797799569168E+01
O    3.1363616918316154E+01    4.6007320059355223E+01   -2.0915474301354063E+01
H    3.1627401466626221E+01    4.5238614627971593E+01   -2.0459648591366562E+01
H    3.2122528487015614E+01    4.6177351157129138E+01   -2.1591001323308355E+01
O    3.2316996441436949E+01    1.7449440500895353E+01   -3.1115790491025887E+01