 # Version information for this restart file 
 # current date 2020-01-19 14:05:16.348
 # current working dir /scratch/snx3000/gtocci/gtocci/MEMBRANES/AIMD_US_IONS_BN/aimd_us_iodide/us_10
 # Program compiled at                              Fri Nov 22 15:19:42 CET 2019
 # Program compiled on                                                  daint102
 # Program compiled for                                   CRAY_XC50-gfortran_gpu
 # Source code revision number                                       git:a698b45
 &GLOBAL
   PRINT_LEVEL  LOW
   PROJECT_NAME BNS
   RUN_TYPE  MD
   WALLTIME 86400
 &END GLOBAL
 &MOTION
   &MD
     ENSEMBLE  NVT
     STEPS  2000
     TIMESTEP     9.9999999999999989E-01
     STEP_START_VAL  42303
     TIME_START_VAL     4.2302999999988671E+04
     ECONS_START_VAL    -8.4829146170848035E+03
     TEMPERATURE     3.0000000000000000E+02
     TEMP_KIND  T
     &BAROSTAT
       PRESSURE     1.0000000000000000E+00
       TIMECON     9.9999999999999986E+01
       VIRIAL  Z
     &END BAROSTAT
     &THERMOSTAT
       TYPE  NOSE
       REGION  GLOBAL
       &NOSE
         LENGTH  4
         TIMECON     9.9999999999999986E+01
         MTS  2
         &COORD
               3.1022722332823444E-01    2.8671479297586075E+01   -1.4340464444005741E+01   -1.4009290634209542E+01
         &END COORD
         &VELOCITY
               9.2233680118065945E-07    1.0724486103010986E-04    1.7704517225418013E-04    2.8541777845408282E-04
         &END VELOCITY
         &MASS
               7.0145132684705392E+07    1.6237299232570693E+04    1.6237299232570693E+04    1.6237299232570693E+04
         &END MASS
         &FORCE
               9.2622497677076450E-11   -5.4834967494916488E-08   -4.7008553632737490E-08   -2.7165020831592756E-08
         &END FORCE
       &END NOSE
     &END THERMOSTAT
     &AVERAGES  T
       &RESTART_AVERAGES
         ITIMES_START  1
         AVECPU     2.4084302405377343E+01
         AVEHUGONIOT     0.0000000000000000E+00
         AVETEMP_BARO     0.0000000000000000E+00
         AVEPOT    -8.4858010861566981E+03
         AVEKIN     2.0513597899354590E+00
         AVETEMP     2.9989232193940745E+02
         AVEKIN_QM     0.0000000000000000E+00
         AVETEMP_QM     0.0000000000000000E+00
         AVEVOL     2.2086622704881127E+05
         AVECELL_A     4.9287836997924984E+01
         AVECELL_B     4.7426456757032106E+01
         AVECELL_C     9.4486306644279694E+01
         AVEALPHA     9.0000000000000000E+01
         AVEBETA     9.0000000000000000E+01
         AVEGAMMA     9.0000000000000000E+01
         AVE_ECONS     5.1320375192411639E+01
         AVE_PRESS     0.0000000000000000E+00
         AVE_PXX     0.0000000000000000E+00
       &END RESTART_AVERAGES
     &END AVERAGES
     &PRINT
       &TEMP_KIND  SILENT
       &END TEMP_KIND
     &END PRINT
   &END MD
   &FREE_ENERGY
     &METADYN
       MIN_DISP    -1.0000000000000000E+00
       OLD_HILL_NUMBER  0
       OLD_HILL_STEP  0
       DO_HILLS  F
       STEP_START_VAL  42303
       NHILLS_START_VAL  0
       &METAVAR
         SCALE     1.0000000000000000E+00
         COLVAR  1
       &END METAVAR
       &PRINT
         &COLVAR  SILENT
           COMMON_ITERATION_LEVELS  3
           &EACH
             MD  1
           &END EACH
         &END COLVAR
       &END PRINT
     &END METADYN
   &END FREE_ENERGY
   &CONSTRAINT
     &COLLECTIVE
       COLVAR  1
       INTERMOLECULAR  T
       &RESTRAINT
         K     4.4625385281452931E-04
       &END RESTRAINT
     &END COLLECTIVE
     &COLVAR_RESTART
           9.6709644083804367E+00
     &END COLVAR_RESTART
   &END CONSTRAINT
   &PRINT
     &TRAJECTORY  SILENT
       &EACH
         MD  1
       &END EACH
     &END TRAJECTORY
     &VELOCITIES  SILENT
       &EACH
         MD  1
       &END EACH
     &END VELOCITIES
     &FORCES  SILENT
       UNIT eV*angstrom^-1
       &EACH
         MD  1
       &END EACH
     &END FORCES
     &RESTART  SILENT
       &EACH
         MD  1
       &END EACH
     &END RESTART
     &RESTART_HISTORY  SILENT
       &EACH
         MD  100
       &END EACH
     &END RESTART_HISTORY
   &END PRINT
 &END MOTION
 &FORCE_EVAL
   METHOD  QS
   &DFT
     BASIS_SET_FILE_NAME /users/gtocci/scratch_daint_3000/data_cp2k//BASIS_MOLOPT
     POTENTIAL_FILE_NAME /users/gtocci/scratch_daint_3000/data_cp2k//GTH_POTENTIALS
     WFN_RESTART_FILE_NAME ./BNS-RESTART.wfn
     CHARGE  -1
     &SCF
       MAX_SCF  10
       EPS_SCF     9.9999999999999995E-07
       SCF_GUESS  RESTART
       &OT  T
         MINIMIZER  DIIS
         PRECONDITIONER  FULL_KINETIC
       &END OT
       &OUTER_SCF  T
         EPS_SCF     9.9999999999999995E-07
         MAX_SCF  30
       &END OUTER_SCF
       &PRINT
         &RESTART  SILENT
           ADD_LAST  NUMERIC
           &EACH
             QS_SCF  50
           &END EACH
         &END RESTART
       &END PRINT
     &END SCF
     &QS
       MAP_CONSISTENT  T
       EXTRAPOLATION  ASPC
       EXTRAPOLATION_ORDER  4
     &END QS
     &MGRID
       NGRIDS  5
       CUTOFF     4.6000000000000000E+02
     &END MGRID
     &XC
       DENSITY_CUTOFF     1.0000000000000000E-10
       GRADIENT_CUTOFF     1.0000000000000000E-10
       TAU_CUTOFF     1.0000000000000000E-10
       &XC_GRID
         XC_DERIV  SPLINE2_SMOOTH
       &END XC_GRID
       &XC_FUNCTIONAL  NO_SHORTCUT
         &LIBXC  T
           FUNCTIONAL XC_GGA_X_OPTB88_VDW
         &END LIBXC
         &VWN  T
         &END VWN
       &END XC_FUNCTIONAL
       &VDW_POTENTIAL
         POTENTIAL_TYPE  NON_LOCAL
         &NON_LOCAL
           TYPE  DRSLL
           VERBOSE_OUTPUT  T
           KERNEL_FILE_NAME /users/gtocci/scratch_daint_3000/data_cp2k//vdW_kernel_table.dat
           CUTOFF     3.6000000000000000E+02
         &END NON_LOCAL
       &END VDW_POTENTIAL
     &END XC
     &REAL_TIME_PROPAGATION
       INITIAL_WFN  SCF_WFN
     &END REAL_TIME_PROPAGATION
     &PRINT
       &MULLIKEN  SILENT
         FILENAME =BNS.mulliken
       &END MULLIKEN
     &END PRINT
   &END DFT
   &SUBSYS
     &CELL
       A     2.6082000000000019E+01    0.0000000000000000E+00    0.0000000000000000E+00
       B     0.0000000000000000E+00    2.5097000000000001E+01    0.0000000000000000E+00
       C     0.0000000000000000E+00    0.0000000000000000E+00    5.0000000000000028E+01
       MULTIPLE_UNIT_CELL  1 1 1
     &END CELL
     &COORD
B   -2.7266038126355667E+00    9.3809197318076443E+00   -3.0147415210736732E+01
B   -5.2777687139879992E-01    1.0543036781404876E+01   -3.0101265575005119E+01
B   -2.6604294730533136E+00    1.1905902941903053E+01   -3.0172962515930887E+01
B   -5.2819864988536602E-01    1.3043803127082535E+01   -3.0123999575390275E+01
B   -2.6969674774872678E+00    1.4389271045027122E+01   -3.0370739627507330E+01
B   -4.8451275516730308E-01    1.5578811698131901E+01   -3.0299333432299495E+01
B   -2.6450892311665695E+00    1.6863710556178628E+01   -3.0456981614640871E+01
B   -4.8565559584502943E-01    1.8106177214250778E+01   -3.0271682699784499E+01
B   -2.7093451590009217E+00    1.9419250856589713E+01   -3.0530254431246814E+01
B   -5.3140105329141674E-01    2.0595034813458817E+01   -3.0517423230043235E+01
B    1.6615529532721356E+00    9.3431506076812667E+00   -3.0418090178457216E+01
B    3.8262649242792355E+00    1.0546307058184754E+01   -3.0383021203815463E+01
B    1.6834403619077869E+00    1.1850013426226065E+01   -3.0104447327165776E+01
B    3.8602534113234128E+00    1.3126397813603123E+01   -3.0115459221705489E+01
B    1.6631104008319340E+00    1.4383553681754428E+01   -2.9958906092210242E+01
B    3.9005487535997534E+00    1.5669324004693467E+01   -2.9998057772468677E+01
B    1.6784022916946764E+00    1.6834541909933126E+01   -3.0103641328060057E+01
B    3.8392166081647146E+00    1.8151678436356171E+01   -3.0062457684719732E+01
B    1.6617937537439333E+00    1.9343676390955792E+01   -3.0210745005352582E+01
B    3.8681720830502400E+00    2.0664162990157163E+01   -3.0380491949745782E+01
B    6.0155798544351642E+00    9.3187317704107464E+00   -3.0683173573225787E+01
B    8.1746851640428009E+00    1.0532217854825417E+01   -3.0797783600847691E+01
B    6.0252967403085558E+00    1.1817797505002709E+01   -3.0473546550148477E+01
B    8.1284744178342923E+00    1.3144750337060774E+01   -3.0790130794057866E+01
B    5.9967133376720376E+00    1.4314111297460272E+01   -3.0276251103295785E+01
B    8.1491247586076092E+00    1.5637585067758131E+01   -3.0515509645754481E+01
B    6.0779912301795980E+00    1.6912916059188152E+01   -3.0042008441344407E+01
B    8.2108329771707513E+00    1.8104703063134380E+01   -3.0559670225809683E+01
B    6.0320542557498973E+00    1.9382409019941758E+01   -3.0302073463924629E+01
B    8.2216375399354771E+00    2.0550781095099406E+01   -3.0734275601298144E+01
N   -1.2924048651447373E+00    9.3564806592623082E+00   -3.0106406655885994E+01
N    9.6589288185674771E-01    1.0614080913311788E+01   -3.0277950119360518E+01
N   -1.2597194586819982E+00    1.1800543632539988E+01   -3.0084607421700138E+01
N    9.2466526260875537E-01    1.3112549153940506E+01   -3.0002495814711327E+01
N   -1.2264668058219181E+00    1.4343937073924437E+01   -3.0389569927154081E+01
N    9.6556635496600407E-01    1.5571524684652680E+01   -3.0142465067187192E+01
N   -1.2147256488365819E+00    1.6834285514215225E+01   -3.0301775132340122E+01
N    9.1878286143894494E-01    1.8084235837600797E+01   -3.0124190690222743E+01
N   -1.2443483874296255E+00    1.9354811246121791E+01   -3.0369891555258061E+01
N    9.6517558362925593E-01    2.0590928991434119E+01   -3.0397056357079354E+01
N    3.0687991287849430E+00    9.3346134851210270E+00   -3.0575385939023796E+01
N    5.2788150401985483E+00    1.0578650091201689E+01   -3.0537335597994989E+01
N    3.1150074094320956E+00    1.1842856319183889E+01   -3.0216663711166426E+01
N    5.3408370701582006E+00    1.3068519025948826E+01   -3.0197004447837855E+01
N    3.1054818587198096E+00    1.4385805084931391E+01   -3.0041860229353269E+01
N    5.3245587651083488E+00    1.5563438722055587E+01   -3.0091072033797456E+01
N    3.0806257220294171E+00    1.6933841717154912E+01   -3.0072692833666018E+01
N    5.3199778575920238E+00    1.8176961870443332E+01   -3.0029012647075728E+01
N    3.1260169950972001E+00    1.9345976197875526E+01   -3.0215798828107669E+01
N    5.3053807163739046E+00    2.0636888227631445E+01   -3.0405032899230132E+01
N    7.4861072667077169E+00    9.2823488027755232E+00   -3.0784557624527107E+01
N    9.6232233334905484E+00    1.0558981825626981E+01   -3.0988031121609023E+01
N    7.4648956002342475E+00    1.1790194107576504E+01   -3.0682480074492602E+01
N    9.5732338271424311E+00    1.3043013922708575E+01   -3.0965603642659456E+01
N    7.4802345995595152E+00    1.4375343886954429E+01   -3.0600041260185563E+01
N    9.6364426617915129E+00    1.5603065006964529E+01   -3.0666614960435275E+01
N    7.4794374645757973E+00    1.6910951993909553E+01   -3.0251634355573266E+01
N    9.6348826947124024E+00    1.8079872093280542E+01   -3.0642937172668780E+01
N    7.4495213640663325E+00    1.9361678935694091E+01   -3.0510266882965674E+01
N    9.6747539819999346E+00    2.0606658616272966E+01   -3.0772134702054728E+01
B   -2.6903258928153502E+00    2.1857426080901046E+01   -3.0630458410720696E+01
B   -4.9345808010286568E-01    2.3100179287334548E+01   -3.0646434746824191E+01
B   -2.6971504298445819E+00    2.4422073486335044E+01   -3.0552544121944624E+01
B   -4.6253606612339782E-01    2.5643841168862991E+01   -3.0519346054735429E+01
B   -2.6458418037797786E+00    2.6967061331376559E+01   -3.0469462482623957E+01
B   -4.9599233124445136E-01    2.8220234903991262E+01   -3.0420732683840072E+01
B   -2.6863568635851114E+00    2.9489615081733888E+01   -3.0167114191989373E+01
B   -5.3284473460738702E-01    3.0680430811858677E+01   -3.0226213659839608E+01
B   -2.7099252794976016E+00    3.1986238425475296E+01   -3.0139660987582442E+01
B   -5.1710999378982048E-01    3.3150810141548099E+01   -3.0227802519871574E+01
B    1.6809909028955645E+00    2.1828420140438070E+01   -3.0519028276764004E+01
B    3.8722224648336683E+00    2.3183263040244430E+01   -3.0579027629698270E+01
B    1.6536581642113735E+00    2.4453138100388056E+01   -3.0713756458423472E+01
B    3.7861984410261709E+00    2.5653974912624982E+01   -3.0736768006943159E+01
B    1.6848116275187917E+00    2.6967481287883423E+01   -3.0648026934018443E+01
B    3.8181229504502654E+00    2.8176023391350185E+01   -3.0781514141719114E+01
B    1.6684467041210795E+00    2.9510269206101533E+01   -3.0463866807222026E+01
B    3.8311265887744157E+00    3.0647705872523680E+01   -3.0556885590845678E+01
B    1.6109325528031870E+00    3.1932832207286751E+01   -3.0310311786011393E+01
B    3.7610873217026382E+00    3.3147640396715850E+01   -3.0597162762744183E+01
B    6.0443702621457085E+00    2.1891769442538891E+01   -3.0429748900543164E+01
B    8.1949005643273090E+00    2.3088658535450584E+01   -3.0531908019220023E+01
B    6.0291164469791418E+00    2.4452851484367145E+01   -3.0415417554163710E+01
B    8.2003169764661195E+00    2.5651763709503260E+01   -3.0415128864485322E+01
B    5.9731498121267146E+00    2.6924636269151293E+01   -3.0594419393885712E+01
B    8.2093435952482885E+00    2.8142120805311194E+01   -3.0610893050485711E+01
B    6.0214463077324112E+00    2.9418979047096411E+01   -3.0549897701822726E+01
B    8.2151907165360853E+00    3.0678080549947794E+01   -3.0732602999846883E+01
B    5.9802034689464358E+00    3.1972327895481698E+01   -3.0719065986287035E+01
B    8.2036074671244581E+00    3.3152565651241581E+01   -3.0834143545170583E+01
N   -1.2338741205383623E+00    2.1825517533011990E+01   -3.0625659600030737E+01
N    9.4236820815759614E-01    2.3120346132061890E+01   -3.0622838167902447E+01
N   -1.2415011178317488E+00    2.4452774813673336E+01   -3.0664897339784634E+01
N    9.8577967795642818E-01    2.5672382212814092E+01   -3.0554949288981401E+01
N   -1.1968021106127271E+00    2.6951806234722447E+01   -3.0493755300105406E+01
N    9.4943727454770488E-01    2.8193068213586177E+01   -3.0453913197947600E+01
N   -1.2700162117400420E+00    2.9465898740442153E+01   -3.0284066331455339E+01
N    9.1872979611477112E-01    3.0659592047749438E+01   -3.0213738347932125E+01
N   -1.2526414395541607E+00    3.1906368675183721E+01   -3.0050853962307212E+01
N    9.2545077052177649E-01    3.3203768633678557E+01   -3.0350742450853208E+01
N    3.1187097016324028E+00    2.1863380254956382E+01   -3.0558983238882689E+01
N    5.3052132990161098E+00    2.3158157236007408E+01   -3.0394450186888555E+01
N    3.0730413336931908E+00    2.4382733100181014E+01   -3.0623727365374275E+01
N    5.2373070268371160E+00    2.5683429457142413E+01   -3.0609219829231851E+01
N    3.1374004493504009E+00    2.6924586311322528E+01   -3.0833025912880192E+01
N    5.2502320269757909E+00    2.8202601721507559E+01   -3.0544197109474656E+01
N    3.0816976921236816E+00    2.9428477444951241E+01   -3.0589471090431520E+01
N    5.2795275631705492E+00    3.0683739039292686E+01   -3.0687944924359012E+01
N    3.0690590105744828E+00    3.1868634570938820E+01   -3.0434354334223386E+01
N    5.2217935082541542E+00    3.3182603949851099E+01   -3.0759974124591452E+01
N    7.5137895581028031E+00    2.1850119919608677E+01   -3.0581003586652241E+01
N    9.6313272430466039E+00    2.3131761472077098E+01   -3.0502021974259907E+01
N    7.4503237220511647E+00    2.4423682430370341E+01   -3.0384491777448911E+01
N    9.6515009120940132E+00    2.5694605142428621E+01   -3.0366976500353331E+01
N    7.4227818876818548E+00    2.6938500452826990E+01   -3.0448401479634200E+01
N    9.6410699363470247E+00    2.8183227846477205E+01   -3.0532170035953747E+01
N    7.4762325462162478E+00    2.9410507366902273E+01   -3.0626763493309220E+01
N    9.6460962522528373E+00    3.0750326349717430E+01   -3.0806452979409933E+01
N    7.4894761398868228E+00    3.1907159845134455E+01   -3.0808604317455227E+01
N    9.6441642575552233E+00    3.3193213915217939E+01   -3.0972618220044115E+01
B    1.0352755164123968E+01    9.3665970435605512E+00   -3.0892882275070157E+01
B    1.2563854809723090E+01    1.0566676830503654E+01   -3.1086752314922041E+01
B    1.0292980062117005E+01    1.1801742115456285E+01   -3.1053391237825206E+01
B    1.2483418390758914E+01    1.3066104901117006E+01   -3.0951025218881806E+01
B    1.0317323678189892E+01    1.4317096795706828E+01   -3.0849187645800644E+01
B    1.2469621607000702E+01    1.5545913675537838E+01   -3.0672815577725114E+01
B    1.0346358036648713E+01    1.6817481415194212E+01   -3.0593244266627352E+01
B    1.2545446106278272E+01    1.8042353606313256E+01   -3.0553059385668654E+01
B    1.0358036031582674E+01    1.9332490219059977E+01   -3.0709642676203512E+01
B    1.2529795049951618E+01    2.0567244334401991E+01   -3.0740141095649832E+01
B    1.4738806503849309E+01    9.3363156970606180E+00   -3.0961879966514086E+01
B    1.6907145774045649E+01    1.0630327689040538E+01   -3.1030840150076934E+01
B    1.4723491434569473E+01    1.1855140405158549E+01   -3.1028515311724796E+01
B    1.6914042039943165E+01    1.3069788883439170E+01   -3.1014318610427871E+01
B    1.4701542335647904E+01    1.4328307163523730E+01   -3.0834430215619935E+01
B    1.6892193597171744E+01    1.5557905334025618E+01   -3.0746974192318039E+01
B    1.4667841676133756E+01    1.6798783245024172E+01   -3.0557823528662148E+01
B    1.6888524329026627E+01    1.8065340777776949E+01   -3.0596642616409635E+01
B    1.4742121166019125E+01    1.9316875487435123E+01   -3.0602607943890170E+01
B    1.6856206568886055E+01    2.0657816720086100E+01   -3.0536258539648792E+01
B    1.9070192030387393E+01    9.4104721644572464E+00   -3.0705951486639297E+01
B    2.1223562271961558E+01    1.0646344710898468E+01   -3.0309543686491740E+01
B    1.9111576485704486E+01    1.1917931938287065E+01   -3.0744381161289606E+01
B    2.1217708518657734E+01    1.3125558512172960E+01   -3.0478987827713279E+01
B    1.9063586196776964E+01    1.4361890813073003E+01   -3.0676944328198278E+01
B    2.1249219188949027E+01    1.5617669318541088E+01   -3.0422820318241506E+01
B    1.9078147407796408E+01    1.6841622832123338E+01   -3.0743011771021830E+01
B    2.1248859122607655E+01    1.8068092548624161E+01   -3.0588598316530046E+01
B    1.9012477132988217E+01    1.9345097189565443E+01   -3.0653395123997271E+01
B    2.1190070445117296E+01    2.0584211638280046E+01   -3.0684370218333235E+01
N    1.1818820563735656E+01    9.3318667641840420E+00   -3.0965396690107735E+01
N    1.3989640771045673E+01    1.0633639463429136E+01   -3.1115717290591650E+01
N    1.1811168082550367E+01    1.1761914818827627E+01   -3.1113273398831044E+01
N    1.3928708622833234E+01    1.3129874925305794E+01   -3.0953074282382932E+01
N    1.1772393311381476E+01    1.4293718975048005E+01   -3.0806772558263244E+01
N    1.3962502756984293E+01    1.5598383325441819E+01   -3.0644081221028756E+01
N    1.1784627717209691E+01    1.6807770370900137E+01   -3.0462947056210368E+01
N    1.3978513642801708E+01    1.8076159051815793E+01   -3.0580406798849264E+01
N    1.1801770728242019E+01    1.9327450546620806E+01   -3.0583326291250540E+01
N    1.3981719913541459E+01    2.0656803196348118E+01   -3.0703804097018757E+01
N    1.6179812963953307E+01    9.3595710484788732E+00   -3.0965870927809913E+01
N    1.8393860482681973E+01    1.0649342904845298E+01   -3.0867666673124479E+01
N    1.6169826409446109E+01    1.1838940296354426E+01   -3.1098121004644863E+01
N    1.8322160551034997E+01    1.3135678825179390E+01   -3.0853861598775694E+01
N    1.6158129148080675E+01    1.4327927665716887E+01   -3.0898679224268811E+01
N    1.8341648015300496E+01    1.5592507371475044E+01   -3.0831876604679412E+01
N    1.6167631519735334E+01    1.6798373959408941E+01   -3.0523329812193225E+01
N    1.8346562564153807E+01    1.8086346301885371E+01   -3.0733642911352529E+01
N    1.6174963729320101E+01    1.9317574735950057E+01   -3.0495913339089427E+01
N    1.8341654215504782E+01    2.0628193710215552E+01   -3.0600412021418652E+01
N    2.0526618800390356E+01    9.3903411275509097E+00   -3.0479767622555684E+01
N    2.2662259042346601E+01    1.0623913121577782E+01   -3.0190093470267904E+01
N    2.0540953471617641E+01    1.1906736635080037E+01   -3.0532541438133499E+01
N    2.2695134990737156E+01    1.3137648523114953E+01   -3.0365303236441289E+01
N    2.0486767610012247E+01    1.4360305291796161E+01   -3.0576589280293042E+01
N    2.2676577416597745E+01    1.5664081495006137E+01   -3.0407243538460918E+01
N    2.0556902389700223E+01    1.6857775183623602E+01   -3.0598374531834402E+01
N    2.2693783514003027E+01    1.8083345952693982E+01   -3.0594816236704219E+01
N    2.0500345536175089E+01    1.9350138221176852E+01   -3.0599512201968501E+01
N    2.2695794833347147E+01    2.0630456512056174E+01   -3.0734061099077081E+01
B    1.0362764012746466E+01    2.1861869209001636E+01   -3.0635601951984928E+01
B    1.2494514787008470E+01    2.3095069732105927E+01   -3.0691546180063245E+01
B    1.0384660088914289E+01    2.4410827314192971E+01   -3.0546073656968172E+01
B    1.2527017989738845E+01    2.5647757199024351E+01   -3.0692781016188381E+01
B    1.0364151230537928E+01    2.6934475815508893E+01   -3.0492416146324491E+01
B    1.2503286899914634E+01    2.8252142656897696E+01   -3.0777914908646576E+01
B    1.0318596322749743E+01    2.9518290617011431E+01   -3.0553037377462509E+01
B    1.2533086978102343E+01    3.0703135631250120E+01   -3.0796767309116760E+01
B    1.0366952965683122E+01    3.1973596159057934E+01   -3.0995405402855823E+01
B    1.2578458492072640E+01    3.3211201338658633E+01   -3.1020036785641942E+01
B    1.4722961088116628E+01    2.1956185794961989E+01   -3.0628872091700391E+01
B    1.6904734283690978E+01    2.3185461718861156E+01   -3.0570282730359516E+01
B    1.4732825232081190E+01    2.4430324298716201E+01   -3.0658082008108522E+01
B    1.6840160783976323E+01    2.5694686636710976E+01   -3.0655925750169107E+01
B    1.4671468733902628E+01    2.6951360396622782E+01   -3.0743711840199047E+01
B    1.6866972583355995E+01    2.8199675485023143E+01   -3.0691030515673855E+01
B    1.4693414981886912E+01    2.9400347433553733E+01   -3.0717565486595639E+01
B    1.6876144126345146E+01    3.0698441311751772E+01   -3.0995481777982320E+01
B    1.4717601763615702E+01    3.1943600244181759E+01   -3.1081994395400347E+01
B    1.6942860426721129E+01    3.3219024331452140E+01   -3.1074303299390600E+01
B    1.9062139041121622E+01    2.1852403298388669E+01   -3.0624183921702670E+01
B    2.1283515893870206E+01    2.3102859503053413E+01   -3.0574455115935905E+01
B    1.9068931632605867E+01    2.4391290995963427E+01   -3.0563397902576789E+01
B    2.1265346894524413E+01    2.5649053554948328E+01   -3.0532330025620308E+01
B    1.9134775503589143E+01    2.6918621267271572E+01   -3.0604149909722178E+01
B    2.1222782723195191E+01    2.8168813890278418E+01   -3.0397277081534895E+01
B    1.9066023159927511E+01    2.9424272335764520E+01   -3.0562248863210488E+01
B    2.1237269694467052E+01    3.0693393159418381E+01   -3.0360482573325609E+01
B    1.9138415508755603E+01    3.1960453599261676E+01   -3.0849309922766366E+01
B    2.1230232274180182E+01    3.3201099847339648E+01   -3.0412667513722045E+01
N    1.1814186008469411E+01    2.1856271689469036E+01   -3.0693652626812593E+01
N    1.3954965746742420E+01    2.3194063734255810E+01   -3.0686442151857719E+01
N    1.1787794552741195E+01    2.4377448776470622E+01   -3.0701301620290437E+01
N    1.3988986694120527E+01    2.5660367863442044E+01   -3.0679070040872276E+01
N    1.1765287806324013E+01    2.6955640336624654E+01   -3.0744555434876521E+01
N    1.3939584732374213E+01    2.8184043652470724E+01   -3.0724049809156281E+01
N    1.1802756295230946E+01    2.9497416073313918E+01   -3.0606544279927029E+01
N    1.3997531362705136E+01    3.0652203306578560E+01   -3.0841334352562889E+01
N    1.1800859227342892E+01    3.1970155578006466E+01   -3.0998322756770904E+01
N    1.4021802452682136E+01    3.3234186826156112E+01   -3.0996817890448241E+01
N    1.6141945137479514E+01    2.1899316363115219E+01   -3.0584159307970022E+01
N    1.8333737618988554E+01    2.3110323822006290E+01   -3.0568337069462395E+01
N    1.6183636801757299E+01    2.4437507015960353E+01   -3.0565688611457144E+01
N    1.8364123608415667E+01    2.5693438080835413E+01   -3.0581298230657183E+01
N    1.6121903911710262E+01    2.6972320719514943E+01   -3.0766414189355366E+01
N    1.8352230782187100E+01    2.8194384644064936E+01   -3.0576557398891449E+01
N    1.6181730289424831E+01    2.9420779569639073E+01   -3.0738640156409996E+01
N    1.8405017572542178E+01    3.0684418163090228E+01   -3.0836309037719392E+01
N    1.6177844466113264E+01    3.1948373136201166E+01   -3.1158989156038928E+01
N    1.8442618930300373E+01    3.3209203903252380E+01   -3.0996699483369248E+01
N    2.0490185473031087E+01    2.1860957067432086E+01   -3.0614928676748946E+01
N    2.2701164428579027E+01    2.3115936030101523E+01   -3.0596030072395347E+01
N    2.0539332043121494E+01    2.4366214819082920E+01   -3.0610453540272331E+01
N    2.2685888911581895E+01    2.5664679366307784E+01   -3.0414285279115514E+01
N    2.0555982609529675E+01    2.6920684970745683E+01   -3.0501855830737767E+01
N    2.2685020541913936E+01    2.8233039496890413E+01   -3.0322036628400340E+01
N    2.0489187363399825E+01    2.9418898367832249E+01   -3.0429278839170987E+01
N    2.2660509692420504E+01    3.0726169894257467E+01   -3.0196547138270130E+01
N    2.0595146624791496E+01    3.1944652049949429E+01   -3.0698972359767200E+01
N    2.2626118082063762E+01    3.3244315925497411E+01   -3.0093616794990911E+01
O   -4.6216917923189300E+01    1.7279991827430973E+01   -2.2138227847817262E+01
H   -4.6034110344453524E+01    1.6655226853831230E+01   -2.1342225123369889E+01
H   -4.5773030182647275E+01    1.6824218402920817E+01   -2.2862160775056829E+01
O   -5.3415099638114064E+01   -2.5715782941401482E+01   -1.2540772374206423E+01
H   -5.2889755349083977E+01   -2.5181571390417680E+01   -1.3161650915785705E+01
H   -5.4142627025746314E+01   -2.5981177995647979E+01   -1.3121905800918363E+01
O   -1.3652352258336277E+01    1.0183907158100999E+02   -2.7471032627296097E+01
H   -1.4253962359680667E+01    1.0106954325727196E+02   -2.7300936255708788E+01
H   -1.2744858840847813E+01    1.0140797323237979E+02   -2.7332670400414933E+01
O   -4.9711119918488826E+01    2.4674535840943623E+01   -2.7699761263049147E+01
H   -4.9215914895360889E+01    2.4766501926724022E+01   -2.6886652937438647E+01
H   -4.9646904690809343E+01    2.3783604177870778E+01   -2.8069238980122780E+01
O   -4.3161815635939419E+01    4.4869515620400726E+01   -2.7554848031537691E+01
H   -4.3759503484199975E+01    4.4879177315735411E+01   -2.8324478404371330E+01
H   -4.3110857116396495E+01    4.3881405316699329E+01   -2.7373694566056930E+01
O    6.6665319872089839E+01    2.0669807821580306E+01   -1.4495846863709414E+01
H    6.6471590984756020E+01    2.0473818770912253E+01   -1.5465404503721672E+01
H    6.5748755988141639E+01    2.0751496182677787E+01   -1.4129274344393600E+01
O    3.6804291413153656E+01    1.4098394296287571E+01   -2.0153760230418808E+01
H    3.6941506813946539E+01    1.3164569702785954E+01   -1.9730861276913306E+01
H    3.5915800821085234E+01    1.4096648869281310E+01   -2.0627824589483193E+01
O   -3.3613064720394462E+01    1.3225149711048568E+01   -1.8237196181523451E+01
H   -3.4289642910248219E+01    1.3657614205720293E+01   -1.7542543245833148E+01
H   -3.2664704951735047E+01    1.3452940315411414E+01   -1.7956437349908473E+01
O    4.5008122491367125E+01    5.5208512682587951E+01   -2.6060778987280507E+01
H    4.5661705636791673E+01    5.4889821642696205E+01   -2.5452934684773389E+01
H    4.5652481944517056E+01    5.5723406092769061E+01   -2.6656210616470322E+01
O   -3.0051122098014105E+01    4.2138525629260613E+01   -1.4065758418341721E+01
H   -2.9657963776126348E+01    4.1260386918376092E+01   -1.4166150916718459E+01
H   -3.0832522412717754E+01    4.2040155614977060E+01   -1.4660092892477850E+01
O    6.0429247570706281E+01    6.9602858586559478E+01   -2.0791650640740134E+01
H    6.0740669263172101E+01    7.0479070611756612E+01   -2.0488013017089457E+01
H    5.9628836953853330E+01    6.9355280100374245E+01   -2.0256303587921767E+01
O    5.6291487975344403E+01    5.4160848357384140E+01   -1.6251722866881646E+01
H    5.6431996638220006E+01    5.3972283893633751E+01   -1.5310272436013726E+01
H    5.5677592279933961E+01    5.5014079761424505E+01   -1.6195264672165546E+01
O    3.4416379104883347E+01   -3.3639043018413012E+01   -1.3829014125574583E+01
H    3.4110442576770637E+01   -3.4576619006483604E+01   -1.4017450796174909E+01
H    3.3657818558411691E+01   -3.3061767991129997E+01   -1.3731137351990940E+01
O    1.3445963419019941E+01    5.9769745917342611E+01   -1.6279571685497238E+01
H    1.3450757352970609E+01    5.9043292011717966E+01   -1.5584313645445514E+01
H    1.4060177820475500E+01    5.9357899079561861E+01   -1.6981442731861407E+01
O   -2.4792147329727008E+01    2.4982203733335961E+01   -1.4182646151543006E+01
H   -2.3961224385973452E+01    2.4523824478077167E+01   -1.3875806658456050E+01
H   -2.4684999692285533E+01    2.4826883758873691E+01   -1.5174315231060801E+01
O   -4.1559830502477901E+01    3.1120648536040509E+01   -2.7522957761975654E+01
H   -4.2221617687928209E+01    3.0344512083556069E+01   -2.7594269171139313E+01
H   -4.0663412151370132E+01    3.0714873434519994E+01   -2.7594531896860751E+01
O   -3.6622384214869697E+01    1.0623800145071367E+02   -1.4169834684982360E+01
H   -3.6947194483510728E+01    1.0527960338025409E+02   -1.4344692144998389E+01
H   -3.5698531701734780E+01    1.0616502487997775E+02   -1.3878117128268894E+01
O   -2.8138493792424439E+00    3.0309394203399858E+01   -2.6202898871353970E+01
H   -2.0251739844623273E+00    3.0721551087280641E+01   -2.5805201629628254E+01
H   -2.4281065290123673E+00    2.9830325057837197E+01   -2.6957154436538278E+01
O    3.6984467862295375E+01    1.1856072542671653E+01   -1.5626544462990189E+01