 # Version information for this restart file 
 # current date 2020-04-18 07:15:19.777
 # current working dir /scratch/snx3000/gtocci/gtocci/MEMBRANES/AIMD_US_IONS_GRA/us_aimd_new/us_12
 # Program compiled at                              Fri Nov 22 15:19:42 CET 2019
 # Program compiled on                                                  daint102
 # Program compiled for                                   CRAY_XC50-gfortran_gpu
 # Source code revision number                                       git:a698b45
 &GLOBAL
   PRINT_LEVEL  LOW
   PROJECT_NAME GRAS
   RUN_TYPE  MD
   WALLTIME 86400
 &END GLOBAL
 &MOTION
   &MD
     ENSEMBLE  NVT
     STEPS  2000
     TIMESTEP     9.9999999999999989E-01
     STEP_START_VAL  73390
     TIME_START_VAL     7.3389999999940541E+04
     ECONS_START_VAL    -8.3040576070603947E+03
     TEMPERATURE     3.0000000000000000E+02
     TEMP_KIND  T
     &BAROSTAT
       PRESSURE     1.0000000000000000E+00
       TIMECON     9.9999999999999986E+01
       VIRIAL  Z
     &END BAROSTAT
     &THERMOSTAT
       TYPE  NOSE
       REGION  GLOBAL
       &NOSE
         LENGTH  4
         TIMECON     9.9999999999999986E+01
         MTS  2
         &COORD
               1.2149266292583634E-01   -1.3049362937569340E+01    7.2431529161359673E+00   -8.8564458328109801E+00
         &END COORD
         &VELOCITY
               5.3953150639042229E-06    3.2023524140011456E-04   -2.5467814927171011E-04   -1.4459325931211059E-04
         &END VELOCITY
         &MASS
               7.0145132684705392E+07    1.6237299232570693E+04    1.6237299232570693E+04    1.6237299232570693E+04
         &END MASS
         &FORCE
               1.2062288912260247E-09    6.7242700589475625E-08    4.4040595984484587E-08    6.3509458663583819E-09
         &END FORCE
       &END NOSE
     &END THERMOSTAT
     &AVERAGES  T
       &RESTART_AVERAGES
         ITIMES_START  1
         AVECPU     3.1496728950370418E+01
         AVEHUGONIOT     0.0000000000000000E+00
         AVETEMP_BARO     0.0000000000000000E+00
         AVEPOT    -8.3065604789448444E+03
         AVEKIN     2.0502880491056406E+00
         AVETEMP     2.9973564203978896E+02
         AVEKIN_QM     0.0000000000000000E+00
         AVETEMP_QM     0.0000000000000000E+00
         AVEVOL     2.1331414786626375E+05
         AVECELL_A     4.8437460238121901E+01
         AVECELL_B     4.6608961231948342E+01
         AVECELL_C     9.4486306644280930E+01
         AVEALPHA     9.0000000000000028E+01
         AVEBETA     9.0000000000000028E+01
         AVEGAMMA     9.0000000000000028E+01
         AVE_ECONS     1.9565506715176664E-01
         AVE_PRESS     0.0000000000000000E+00
         AVE_PXX     0.0000000000000000E+00
       &END RESTART_AVERAGES
     &END AVERAGES
     &PRINT
       &TEMP_KIND  SILENT
       &END TEMP_KIND
     &END PRINT
   &END MD
   &FREE_ENERGY
     &METADYN
       MIN_DISP    -1.0000000000000000E+00
       OLD_HILL_NUMBER  0
       OLD_HILL_STEP  0
       DO_HILLS  F
       STEP_START_VAL  73390
       NHILLS_START_VAL  0
       &METAVAR
         SCALE     1.0000000000000000E+00
         COLVAR  1
       &END METAVAR
       &PRINT
         &COLVAR  SILENT
           COMMON_ITERATION_LEVELS  3
           &EACH
             MD  1
           &END EACH
         &END COLVAR
       &END PRINT
     &END METADYN
   &END FREE_ENERGY
   &CONSTRAINT
     &COLLECTIVE
       COLVAR  1
       INTERMOLECULAR  T
       &RESTRAINT
         K     4.4625385281452931E-04
       &END RESTRAINT
     &END COLLECTIVE
     &COLVAR_RESTART
           1.1338356797313859E+01
     &END COLVAR_RESTART
   &END CONSTRAINT
   &PRINT
     &TRAJECTORY  SILENT
       &EACH
         MD  1
       &END EACH
     &END TRAJECTORY
     &VELOCITIES  SILENT
       &EACH
         MD  1
       &END EACH
     &END VELOCITIES
     &FORCES  SILENT
       UNIT eV*angstrom^-1
       &EACH
         MD  1
       &END EACH
     &END FORCES
     &RESTART  SILENT
       &EACH
         MD  1
       &END EACH
     &END RESTART
     &RESTART_HISTORY  SILENT
       &EACH
         MD  100
       &END EACH
     &END RESTART_HISTORY
   &END PRINT
 &END MOTION
 &FORCE_EVAL
   METHOD  QS
   &DFT
     BASIS_SET_FILE_NAME /users/gtocci/scratch_daint_3000/data_cp2k//BASIS_MOLOPT
     POTENTIAL_FILE_NAME /users/gtocci/scratch_daint_3000/data_cp2k//GTH_POTENTIALS
     WFN_RESTART_FILE_NAME ./GRAS-RESTART.wfn
     CHARGE  -1
     &SCF
       MAX_SCF  10
       EPS_SCF     9.9999999999999995E-07
       SCF_GUESS  RESTART
       &OT  T
         MINIMIZER  DIIS
         PRECONDITIONER  FULL_KINETIC
       &END OT
       &OUTER_SCF  T
         EPS_SCF     9.9999999999999995E-07
         MAX_SCF  30
       &END OUTER_SCF
       &PRINT
         &RESTART  SILENT
           ADD_LAST  NUMERIC
           &EACH
             QS_SCF  50
           &END EACH
         &END RESTART
       &END PRINT
     &END SCF
     &QS
       MAP_CONSISTENT  T
       EXTRAPOLATION  ASPC
       EXTRAPOLATION_ORDER  4
     &END QS
     &MGRID
       NGRIDS  5
       CUTOFF     4.6000000000000000E+02
     &END MGRID
     &XC
       DENSITY_CUTOFF     1.0000000000000000E-10
       GRADIENT_CUTOFF     1.0000000000000000E-10
       TAU_CUTOFF     1.0000000000000000E-10
       &XC_GRID
         XC_DERIV  SPLINE2_SMOOTH
       &END XC_GRID
       &XC_FUNCTIONAL  NO_SHORTCUT
         &LIBXC  T
           FUNCTIONAL XC_GGA_X_OPTB88_VDW
         &END LIBXC
         &VWN  T
         &END VWN
       &END XC_FUNCTIONAL
       &VDW_POTENTIAL
         POTENTIAL_TYPE  NON_LOCAL
         &NON_LOCAL
           TYPE  DRSLL
           VERBOSE_OUTPUT  T
           KERNEL_FILE_NAME /users/gtocci/scratch_daint_3000/data_cp2k//vdW_kernel_table.dat
         &END NON_LOCAL
       &END VDW_POTENTIAL
     &END XC
     &REAL_TIME_PROPAGATION
       INITIAL_WFN  SCF_WFN
     &END REAL_TIME_PROPAGATION
     &PRINT
       &MULLIKEN  SILENT
         FILENAME =GRAS.mulliken
       &END MULLIKEN
     &END PRINT
   &END DFT
   &SUBSYS
     &CELL
       A     2.5632000000000001E+01    0.0000000000000000E+00    0.0000000000000000E+00
       B     0.0000000000000000E+00    2.4664400000000022E+01    0.0000000000000000E+00
       C     0.0000000000000000E+00    0.0000000000000000E+00    5.0000000000000028E+01
       MULTIPLE_UNIT_CELL  1 1 1
     &END CELL
     &COORD
C    2.1156226884621336E+00    1.6901419979433463E+01   -1.6940186525494365E+01
C    3.5546753997882772E+00    1.6852836471761677E+01   -1.6962211675960614E+01
C    4.2935565051931048E+00    1.8089679461137720E+01   -1.6988474423298413E+01
C    5.7136554579012415E+00    1.8097045158111083E+01   -1.6910687651763880E+01
C    2.1341095871398692E+00    1.9377417587772104E+01   -1.7058309164973359E+01
C    3.5755524974373207E+00    1.9318901852954188E+01   -1.6955613670050980E+01
C    4.2462079227753682E+00    2.0553813581583800E+01   -1.6910011380878338E+01
C    5.6563108089756051E+00    2.0530140515646455E+01   -1.6826289072088841E+01
C    2.1610295727873443E+00    2.1782218441197418E+01   -1.6961983866376126E+01
C    3.5592184311108790E+00    2.1762556795091161E+01   -1.6942486569216445E+01
C    4.2395943806502121E+00    2.3034964475571151E+01   -1.6923125180033423E+01
C    5.6360908447957643E+00    2.3012165489751386E+01   -1.6861386528524250E+01
C    2.0738963168592255E+00    2.4244445851977854E+01   -1.6754348281680898E+01
C    3.5405409267732546E+00    2.4245761458499931E+01   -1.6865550876456954E+01
C    4.2259523194018662E+00    2.5485520206392426E+01   -1.6831945815436814E+01
C    5.6098778050679003E+00    2.5475299292013300E+01   -1.6755890733000232E+01
C    2.1000243131282010E+00    2.6731370871648902E+01   -1.6691418746770747E+01
C    3.5186695623209596E+00    2.6745481392020345E+01   -1.6732364380064414E+01
C    4.2764992996290454E+00    1.5618295099477061E+01   -1.6889952856058880E+01
C    5.7033074746450074E+00    1.5644782498905581E+01   -1.6946564830895426E+01
C    6.4040455326749397E+00    1.6848298426637552E+01   -1.6879060554787944E+01
C    7.8328490726584405E+00    1.6858710121112445E+01   -1.6835912616226789E+01
C    8.5357249913592153E+00    1.8100687676866134E+01   -1.6858678382291000E+01
C    9.9635968201772140E+00    1.8127029584729630E+01   -1.6849894784253145E+01
C    6.3952214571575512E+00    1.9331861216374374E+01   -1.6859322194777029E+01
C    7.8304189303998477E+00    1.9346829143542653E+01   -1.6836181041860961E+01
C    8.5065629136337240E+00    2.0610647235053481E+01   -1.6779889672902303E+01
C    9.9158223992371521E+00    2.0583530761729694E+01   -1.6847264894346630E+01
C    6.3491093261987483E+00    2.1779040312276155E+01   -1.6817285091204724E+01
C    7.7479236930983362E+00    2.1855919434872380E+01   -1.6784477993482060E+01
C    8.4523791221248405E+00    2.3059469283332508E+01   -1.6721938809616894E+01
C    9.8671818603756716E+00    2.3050543276232386E+01   -1.6696386323884759E+01
C    6.3669617888560941E+00    2.4268136991616799E+01   -1.6790273741014076E+01
C    7.7638778321894906E+00    2.4302604100598437E+01   -1.6693175709667749E+01
C    8.4941664852382139E+00    2.5548094055629104E+01   -1.6644181442414723E+01
C    9.8959650088433744E+00    2.5524946415876091E+01   -1.6714870626196358E+01
C    6.3490300196213854E+00    2.6745627716191802E+01   -1.6673713672748899E+01
C    7.7857186492562143E+00    2.6755843549457886E+01   -1.6639648939498866E+01
C    8.5329649407073589E+00    1.5653553899704750E+01   -1.6786511319857205E+01
C    9.9433210611453831E+00    1.5670096620037777E+01   -1.6731348193710549E+01
C    1.0695239001732354E+01    1.6879082848057507E+01   -1.6761585114108836E+01
C    1.2084291729950845E+01    1.6833038902579119E+01   -1.6668048248580433E+01
C    1.2801270678505990E+01    1.8103043985456544E+01   -1.6661167528467026E+01
C    1.4213772870769672E+01    1.8081087939742936E+01   -1.6593048404719081E+01
C    1.0674074873235247E+01    1.9357837196342857E+01   -1.6816871627988633E+01
C    1.2081722236666179E+01    1.9332609915768138E+01   -1.6775590004806290E+01
C    1.2774860724723432E+01    2.0540323576453343E+01   -1.6827841694891944E+01
C    1.4197028435119920E+01    2.0525544826566716E+01   -1.6612017813277109E+01
C    1.0615497705320060E+01    2.1827093729861566E+01   -1.6806088962106287E+01
C    1.2033197183183487E+01    2.1807153411022941E+01   -1.6790443161378914E+01
C    1.2728170307154077E+01    2.3031154987679184E+01   -1.6783074565158500E+01
C    1.4132429237444448E+01    2.3044162183670618E+01   -1.6659402163264758E+01
C    1.0601245039404038E+01    2.4284297639127121E+01   -1.6733524329139168E+01
C    1.2005951731065906E+01    2.4259939333651534E+01   -1.6748748081980121E+01
C    1.2757745867474563E+01    2.5520428643728515E+01   -1.6726623234696682E+01
C    1.4170465972751275E+01    2.5503875112934740E+01   -1.6649454550678914E+01
C    1.0643259381545665E+01    2.6755689227649043E+01   -1.6670907989156909E+01
C    1.2048185722095381E+01    2.6763851088426147E+01   -1.6644643195582457E+01
C    1.2792109604191438E+01    1.5594832610610185E+01   -1.6584600978401195E+01
C    1.4231868911455448E+01    1.5617135100763573E+01   -1.6424571640835218E+01
C    2.0762282583503566E+00    2.9167380488906215E+01   -1.6756691169690072E+01
C    3.5011437180427523E+00    2.9185834753605498E+01   -1.6630352106499469E+01
C    4.2547562677076201E+00    3.0395662414969102E+01   -1.6602524175272311E+01
C    5.6721041990563528E+00    3.0409036837082585E+01   -1.6486594924891818E+01
C    2.1285846576658605E+00    3.1629759391162750E+01   -1.6815903883246367E+01
C    3.5589232021228181E+00    3.1634820097678752E+01   -1.6745154704539456E+01
C    4.2763101324689448E+00    3.2856884816677280E+01   -1.6768214395348906E+01
C    5.6723228847049736E+00    3.2884138520292545E+01   -1.6701577485625933E+01
C    2.1180287228345760E+00    3.4060317978769085E+01   -1.6881668075234074E+01
C    3.5473348197598815E+00    3.4105452093679759E+01   -1.6937499145532676E+01
C    4.2226335998318234E+00    3.5332609836863696E+01   -1.6929602313536037E+01
C    5.6146324427979089E+00    3.5336544463912922E+01   -1.6843627098651478E+01
C    2.1444179973546582E+00    3.6566492844411471E+01   -1.6844197984399354E+01
C    3.5235738428761296E+00    3.6565897674102239E+01   -1.6881757336485574E+01
C    4.2580844120041910E+00    3.7782510637128269E+01   -1.6862031236579149E+01
C    5.6670763406181655E+00    3.7759975788340526E+01   -1.6815710682166657E+01
C    2.1388230521845513E+00    3.9063129754927587E+01   -1.6860444628041254E+01
C    3.5253271301072737E+00    3.9042512849504575E+01   -1.6808040461522381E+01
C    4.2324024169276777E+00    2.7972203452282852E+01   -1.6665765440693626E+01
C    5.6226201538820790E+00    2.7954643249678870E+01   -1.6579555154393493E+01
C    6.3733444125838687E+00    2.9163088483104357E+01   -1.6444113980399610E+01
C    7.8066997796982971E+00    2.9194952553156536E+01   -1.6466165225325334E+01
C    8.5054456514685555E+00    3.0410400100535778E+01   -1.6574219654161055E+01
C    9.9456992000025810E+00    3.0436576312749573E+01   -1.6640768699876489E+01
C    6.3616908210376488E+00    3.1691181109505973E+01   -1.6533496279609246E+01
C    7.7840885173502157E+00    3.1640297309337843E+01   -1.6570837413105838E+01
C    8.5095292264638953E+00    3.2861918944807577E+01   -1.6608929560014285E+01
C    9.9547730808681152E+00    3.2880506931072226E+01   -1.6605138842692121E+01
C    6.3601100429727184E+00    3.4145720127224195E+01   -1.6684592048771204E+01
C    7.7725481932193485E+00    3.4118252984143062E+01   -1.6609696448092333E+01
C    8.4662019800088952E+00    3.5307550944748165E+01   -1.6653672400589564E+01
C    9.9297946067716616E+00    3.5379646617589799E+01   -1.6619242759578892E+01
C    6.3260816410958807E+00    3.6530812213000132E+01   -1.6882193644388302E+01
C    7.7428936356605016E+00    3.6579394113534335E+01   -1.6745102580911382E+01
C    8.4744720619049190E+00    3.7852771302080065E+01   -1.6759780716234399E+01
C    9.8895694273791701E+00    3.7858772817044063E+01   -1.6679812024278860E+01
C    6.3359446361023730E+00    3.9019683165516028E+01   -1.6790435771492380E+01
C    7.7895494969455310E+00    3.9085378856254579E+01   -1.6767202107159783E+01
C    8.5376826829853130E+00    2.7985563058815703E+01   -1.6545936148789089E+01
C    9.9241152180222905E+00    2.7930479492637776E+01   -1.6592808629564598E+01
C    1.0669980698493227E+01    2.9229815034092567E+01   -1.6605791435514803E+01
C    1.2086305172067112E+01    2.9195523198418105E+01   -1.6538135099575594E+01
C    1.2784069808797577E+01    3.0465751259782820E+01   -1.6583638690146920E+01
C    1.4199803067292571E+01    3.0461994991685117E+01   -1.6404162853219599E+01
C    1.0675593141157405E+01    3.1663073260706479E+01   -1.6701633522758627E+01
C    1.2059604843222706E+01    3.1689792903534094E+01   -1.6629721104856728E+01
C    1.2778200951491957E+01    3.2937355141987318E+01   -1.6509948172748480E+01
C    1.4206428311871644E+01    3.2922054223802746E+01   -1.6428059285942826E+01
C    1.0631697195303884E+01    3.4154931309243011E+01   -1.6569230526094877E+01
C    1.2061020374851415E+01    3.4151397373950729E+01   -1.6480235042406466E+01
C    1.2726150701696854E+01    3.5428509008881235E+01   -1.6396441565469864E+01
C    1.4168860788245917E+01    3.5369690653559786E+01   -1.6399433440837633E+01
C    1.0615809941382135E+01    3.6634954260429041E+01   -1.6634614034570479E+01
C    1.2045355386141862E+01    3.6652563354968009E+01   -1.6478103903446669E+01
C    1.2775834348558456E+01    3.7860533981468265E+01   -1.6422439017708946E+01
C    1.4190933871111252E+01    3.7844412970328854E+01   -1.6380612642462211E+01
C    1.0631228451848255E+01    3.9083666787763072E+01   -1.6592966611429347E+01
C    1.2068806462629375E+01    3.9082442255351900E+01   -1.6501392648619198E+01
C    1.2805166450987095E+01    2.7979306031553822E+01   -1.6607105421637936E+01
C    1.4229807110087663E+01    2.7988341301515653E+01   -1.6466782470941318E+01
C    1.4944523380309468E+01    1.6834378466348273E+01   -1.6519509923059708E+01
C    1.6389409496594901E+01    1.6868014101451575E+01   -1.6547412612550485E+01
C    1.7073948652059414E+01    1.8124669111943696E+01   -1.6694881117881607E+01
C    1.8474245087264112E+01    1.8115701115207802E+01   -1.6917935890983955E+01
C    1.4956751084009758E+01    1.9317846136167248E+01   -1.6551648663814596E+01
C    1.6399857436659669E+01    1.9379745402935622E+01   -1.6599534033921152E+01
C    1.7062217481948604E+01    2.0579092807229419E+01   -1.6769309864564047E+01
C    1.8511867795877151E+01    2.0598562934921578E+01   -1.6946926431994875E+01
C    1.4871169212887994E+01    2.1781723934229493E+01   -1.6639984905815719E+01
C    1.6342276955502761E+01    2.1784980906853001E+01   -1.6724343662245236E+01
C    1.7053354924888126E+01    2.3044903437944019E+01   -1.6727506252302053E+01
C    1.8496444664848521E+01    2.3046238383821709E+01   -1.6814668588054953E+01
C    1.4894080492303356E+01    2.4244981436162917E+01   -1.6648360696147225E+01
C    1.6345105705907905E+01    2.4263959545467330E+01   -1.6583405218034002E+01
C    1.7079669494674132E+01    2.5504736412190180E+01   -1.6583163880606811E+01
C    1.8486720715669161E+01    2.5535749645838859E+01   -1.6722953837142800E+01
C    1.4898033699204884E+01    2.6740842575605640E+01   -1.6477467036825555E+01
C    1.6344424127827711E+01    2.6733990149358902E+01   -1.6476684104242921E+01
C    1.7111272260094289E+01    1.5636507675649723E+01   -1.6637805373924216E+01
C    1.8480797480781305E+01    1.5640731617988642E+01   -1.6857197597487247E+01
C    1.9173880203635257E+01    1.6901650609121241E+01   -1.6989405212060724E+01
C    2.0619219713582147E+01    1.6831532947503749E+01   -1.7009761264088969E+01
C    2.1326687696542237E+01    1.8079480636578683E+01   -1.6981908605010052E+01
C    2.2749745082856730E+01    1.8070028155192585E+01   -1.6990558217260386E+01
C    1.9174460492086265E+01    1.9343132482867826E+01   -1.6996614211568968E+01
C    2.0587202539315076E+01    1.9279348835639322E+01   -1.6948513466346750E+01
C    2.1332991206594144E+01    2.0533476594194166E+01   -1.6920828729287017E+01
C    2.2786460689186960E+01    2.0524695453466226E+01   -1.6886038601047147E+01
C    1.9217561399879909E+01    2.1808750049122171E+01   -1.6919527705054833E+01
C    2.0637502238195314E+01    2.1779241338183731E+01   -1.6933339204495894E+01
C    2.1323567360705223E+01    2.3025446403566033E+01   -1.6900317895215242E+01
C    2.2773142481594988E+01    2.3043644221014613E+01   -1.6903141670468010E+01
C    1.9192666275526257E+01    2.4302387665163039E+01   -1.6786956732695504E+01
C    2.0626365933355139E+01    2.4265735051262698E+01   -1.6859462888928000E+01
C    2.1335354894156282E+01    2.5515787739791840E+01   -1.6854480645413471E+01
C    2.2763502287853139E+01    2.5497579846199642E+01   -1.6882850168123440E+01
C    1.9199843801688257E+01    2.6748189110373154E+01   -1.6687930353648614E+01
C    2.0592773569540562E+01    2.6718945051499215E+01   -1.6776669143211517E+01
C    2.1352042461974271E+01    1.5616652451708271E+01   -1.6984342056783515E+01
C    2.2766371128717765E+01    1.5608849391143366E+01   -1.7030612577915910E+01
C    2.3502824874445636E+01    1.6851307911886575E+01   -1.7035127766512986E+01
C    2.4935327091968581E+01    1.6911126358279237E+01   -1.7082455228858198E+01
C    2.5597598954891808E+01    1.8138012852456718E+01   -1.7037664853030130E+01
C    2.7034210321524323E+01    1.8109414510493075E+01   -1.7022240599600167E+01
C    2.3468204066238499E+01    1.9327093009691492E+01   -1.7000319637299963E+01
C    2.4909106831872570E+01    1.9356560745365051E+01   -1.7072852922622783E+01
C    2.5674004927711572E+01    2.0565611123447308E+01   -1.7025696189935918E+01
C    2.7099552647354319E+01    2.0598342022540859E+01   -1.7030270190092743E+01
C    2.3476522405707733E+01    2.1794957742622241E+01   -1.6921789668111920E+01
C    2.4944814687969522E+01    2.1796184946213938E+01   -1.6945086741997720E+01
C    2.5610409255923610E+01    2.3067383865480629E+01   -1.6943707880435880E+01
C    2.7058506815984874E+01    2.3001650888708443E+01   -1.6811788402005746E+01
C    2.3480532992634551E+01    2.4286769667655690E+01   -1.6904079817637221E+01
C    2.4895136243997051E+01    2.4308332653077692E+01   -1.6914772971582622E+01
C    2.5611875249142756E+01    2.5504782599496785E+01   -1.6738297097624031E+01
C    2.7015935413602254E+01    2.5495648102305481E+01   -1.6712916764510524E+01
C    2.3478091082782303E+01    2.6737400072508979E+01   -1.6723005371763435E+01
C    2.4872036709351086E+01    2.6759671768501768E+01   -1.6663132558335448E+01
C    2.5615994934557516E+01    1.5653567289207816E+01   -1.6922098647694003E+01
C    2.7057088509008732E+01    1.5655542822027197E+01   -1.6891357800908555E+01
C    1.4931801110542407E+01    2.9220990884252821E+01   -1.6328321418089953E+01
C    1.6335695209741775E+01    2.9195838347065386E+01   -1.6345754111305641E+01
C    1.7065577866071465E+01    3.0490569994022980E+01   -1.6376233307053617E+01
C    1.8468903406863443E+01    3.0461790526603089E+01   -1.6511435331930269E+01
C    1.4919007500067561E+01    3.1696771047278315E+01   -1.6389992480192856E+01
C    1.6373216007591306E+01    3.1745840737766866E+01   -1.6430214854907220E+01
C    1.7048677902068842E+01    3.2970052585316139E+01   -1.6596560450951127E+01
C    1.8438750983571389E+01    3.2937056107832547E+01   -1.6650307048913717E+01
C    1.4917141422307505E+01    3.4173644951600949E+01   -1.6442394495207100E+01
C    1.6343946142616325E+01    3.4199213075227270E+01   -1.6544520098766409E+01
C    1.7085985155704687E+01    3.5395512203962809E+01   -1.6680634343040744E+01
C    1.8498792972589758E+01    3.5388710554545334E+01   -1.6892111859974950E+01
C    1.4915882192160494E+01    3.6620278832340588E+01   -1.6466598299490759E+01
C    1.6329273544392489E+01    3.6647993091888203E+01   -1.6723465721812889E+01
C    1.7042460596036936E+01    3.7868848694138968E+01   -1.6787290401436042E+01
C    1.8502721048103329E+01    3.7839964850441547E+01   -1.6927692849109064E+01
C    1.4946457264627877E+01    3.9055096698741195E+01   -1.6442906479844758E+01
C    1.6358494259410502E+01    3.9087688138662166E+01   -1.6639057041631677E+01
C    1.7068941868007972E+01    2.7926549753279403E+01   -1.6453740999155354E+01
C    1.8494889311951582E+01    2.8005448402275594E+01   -1.6562181261159047E+01
C    1.9195803784846053E+01    2.9217389108463053E+01   -1.6619631744715839E+01
C    2.0630636425277075E+01    2.9198969195692598E+01   -1.6572780267950954E+01
C    2.1342267398758878E+01    3.0445200379959946E+01   -1.6580659847192312E+01
C    2.2756784217516458E+01    3.0439118123902755E+01   -1.6599381884182783E+01
C    1.9187122322273282E+01    3.1709016162971551E+01   -1.6585979376418535E+01
C    2.0626258516298545E+01    3.1686480235059229E+01   -1.6591880012910988E+01
C    2.1294627748655568E+01    3.2943249834782897E+01   -1.6798356245533949E+01
C    2.2728022096272660E+01    3.2888623618230895E+01   -1.6744785227620010E+01
C    1.9155047287419173E+01    3.4139556906222460E+01   -1.6875424167576416E+01
C    2.0585882564188044E+01    3.4146191539761958E+01   -1.6958995831248867E+01
C    2.1299476218509191E+01    3.5351376174047992E+01   -1.7062524526388362E+01
C    2.2746481227630987E+01    3.5347294120104316E+01   -1.6911272555338883E+01
C    1.9192204406483395E+01    3.6619966623342997E+01   -1.6953868037943558E+01
C    2.0598681926161895E+01    3.6555488548188343E+01   -1.7108913818087238E+01
C    2.1326761682794473E+01    3.7791109424720240E+01   -1.7083309211546975E+01
C    2.2761222670768653E+01    3.7832086850566832E+01   -1.7095482912791837E+01
C    1.9192101604342511E+01    3.9045930028517958E+01   -1.6976560640035622E+01
C    2.0626794998340561E+01    3.9038326862217779E+01   -1.7040155860267362E+01
C    2.1322954830450691E+01    2.7943844830843567E+01   -1.6659384260478404E+01
C    2.2769306568206527E+01    2.7938338986358637E+01   -1.6683329230513166E+01
C    2.3468182077106551E+01    2.9216732303716540E+01   -1.6622911023748490E+01
C    2.4857073119187753E+01    2.9253769962106762E+01   -1.6626027570851257E+01
C    2.5586233216490207E+01    3.0446800507167204E+01   -1.6701443621076866E+01
C    2.7040525876425683E+01    3.0419627516338462E+01   -1.6735992689152635E+01
C    2.3439162900640252E+01    3.1659016889206818E+01   -1.6645822376857730E+01
C    2.4874508995639783E+01    3.1679509287713117E+01   -1.6722488535646647E+01
C    2.5626649051762687E+01    3.2897232737247514E+01   -1.6850620744676249E+01
C    2.7039359691905752E+01    3.2856969132446693E+01   -1.6821256779361917E+01
C    2.3486092898664285E+01    3.4098962365844969E+01   -1.6790888330641437E+01
C    2.4899231392942927E+01    3.4141383560478225E+01   -1.6830268357119390E+01
C    2.5605620019494623E+01    3.5379389119610494E+01   -1.6851248906783894E+01
C    2.7033782947151806E+01    3.5317279462129207E+01   -1.6840736408401675E+01
C    2.3457394093020540E+01    3.6604656659115676E+01   -1.6923810458235042E+01
C    2.4894467682875927E+01    3.6583061620920184E+01   -1.6878232309709361E+01
C    2.5619120675459982E+01    3.7869613120731159E+01   -1.6873204875441203E+01
C    2.7030082119872862E+01    3.7790560302873466E+01   -1.6835697413496746E+01
C    2.3474818607448757E+01    3.9074247690326189E+01   -1.7005976811678195E+01
C    2.4884289330508583E+01    3.9086459171924993E+01   -1.6879851763530844E+01
C    2.5577832516184309E+01    2.7994998405644417E+01   -1.6682335398543550E+01
C    2.6995072116535255E+01    2.7970115499822480E+01   -1.6716497274051314E+01
O    1.5059094555039982E+02    2.7976868609809721E+01   -7.0755876381494103E+00
H    1.5039639447167303E+02    2.7943304085406350E+01   -6.1181073179305123E+00
H    1.5117586000397316E+02    2.8792728435192448E+01   -7.3579430890754471E+00
O    1.0519945137991270E+02   -5.5405136206791097E+00    6.6965427418959678E-01
H    1.0578860285823475E+02   -6.3265870912504507E+00    1.0481429348962188E+00
H    1.0428419609884578E+02   -5.7941999230895789E+00    5.4144763884837055E-01
O    6.5037926477960610E+01    8.8657058007338293E+01   -1.9374048713933565E+00
H    6.4421387651219504E+01    8.7866496890973778E+01   -2.1867062108969586E+00
H    6.4562010323781010E+01    8.9360609658661133E+01   -2.3616609494405147E+00
O    1.9263947225270832E+02   -4.0432744208778622E+01   -5.2820792698605459E+00
H    1.9253339897502576E+02   -3.9756538623560346E+01   -6.0452894457755342E+00
H    1.9218412647763344E+02   -4.1271275412159476E+01   -5.5360621854789605E+00
O    7.0495345717012327E+01    7.5081380267713826E+01   -1.2069596355958531E+01
H    6.9938770531687283E+01    7.5914440360319375E+01   -1.1754530397212529E+01
H    7.1300086900583977E+01    7.5405969879845813E+01   -1.2532707310364287E+01
O    1.0227087454921188E+02    2.5299974985753064E+01   -1.3214999074986654E+01
H    1.0163797394743946E+02    2.4498895284704567E+01   -1.3429906212108708E+01
H    1.0311742341847744E+02    2.5002757845187418E+01   -1.3634311233862000E+01
O    2.1937801650181382E+02    3.4347600686878977E+01   -2.6478399365456422E+00
H    2.1908284083884240E+02    3.4564477865283706E+01   -3.5637651786968463E+00
H    2.2003358065503875E+02    3.5064949961168757E+01   -2.4644362830066000E+00
O    6.3440352424607575E+01   -7.4415213037008527E+01   -4.0558167780394125E+00
H    6.3721282405470660E+01   -7.4457319041457282E+01   -4.9572075008194414E+00
H    6.2680185079022351E+01   -7.5001461792727611E+01   -4.0730135991143976E+00
O    3.7548703684881076E+01    3.7159349141893323E+01   -1.0645110217514253E+01
H    3.8022657855292401E+01    3.6697952656984690E+01   -1.1416434024434087E+01
H    3.8198666964386334E+01    3.6968746661801482E+01   -9.9055666254006756E+00
O    1.2791653557542821E+02    5.1200405723929329E+01   -1.0266281916469781E+01
H    1.2703527473292087E+02    5.0848648162621679E+01   -1.0374827057715285E+01
H    1.2813868290985229E+02    5.1241940434724242E+01   -9.3042413918014812E+00
O    1.1854693932135085E+02    3.3195091479272286E+01   -5.1834723168733374E+00
H    1.1902364928074184E+02    3.2665596940884193E+01   -5.8080630340719761E+00
H    1.1760279817057258E+02    3.3130410433736380E+01   -5.3844961638291373E+00
O    5.3436432384024151E+01    5.1173900859959154E+01   -6.5347494130965771E+00
H    5.3996883779211515E+01    5.1526340085781982E+01   -7.2947761392072454E+00
H    5.4081309384013245E+01    5.0642329525025445E+01   -6.0392362948617828E+00
O    7.1359992341184835E+01   -4.8147757856971992E+01   -6.1250441040498265E+00
H    7.2244358211692074E+01   -4.8582392399256179E+01   -5.9169870508944786E+00
H    7.1527275593299322E+01   -4.7245532462285411E+01   -5.7878842382916691E+00
O    1.2783488966357339E+02   -9.7382903920898357E+01   -7.4976962231711299E+00
H    1.2867761311102450E+02   -9.7374936421056844E+01   -6.9917163855571580E+00
H    1.2705323350768597E+02   -9.6854037494229289E+01   -7.1276686883510010E+00
O    6.0231839064145767E+01    1.9675533353369278E+02   -5.6794209866706318E+00
H    6.0857934525059299E+01    1.9715185462521924E+02   -6.3079069144123308E+00
H    5.9924060398247939E+01    1.9750742239931253E+02   -5.0750710985423657E+00
O    1.4253394014242718E+02    7.7283132706479620E+01   -6.2549109003444281E+00
H    1.4320934227830264E+02    7.6704497095195521E+01   -5.7694099804679748E+00
H    1.4306311061879879E+02    7.7885704383458261E+01   -6.7731351000197870E+00
O    5.7546261716518934E+01    4.8089342054065419E+01   -4.2182797064224014E+00
H    5.7995866956410360E+01    4.7283285218907587E+01   -4.5405799947659133E+00
H    5.8283510550424658E+01    4.8762881569327092E+01   -4.0194739509449047E+00
O    1.2798751682907556E+02   -5.5805781558670674E+01    2.8070663745474489E-01
H    1.2772052586371332E+02   -5.5527906087001220E+01   -6.6879804064590997E-01
H    1.2714518229666614E+02   -5.5515464047417154E+01    6.7782690596146777E-01
O    8.7105574073885222E+01   -5.1640194920355151E+00   -1.0725730655617690E+01
H    8.7045135283306493E+01   -4.2206524053149854E+00   -1.0738635817888769E+01