 # Version information for this restart file 
 # current date 2020-01-19 14:05:15.888
 # current working dir /scratch/snx3000/gtocci/gtocci/MEMBRANES/AIMD_US_IONS_BN/aimd_us_iodide/us_15
 # Program compiled at                              Fri Nov 22 15:19:42 CET 2019
 # Program compiled on                                                  daint102
 # Program compiled for                                   CRAY_XC50-gfortran_gpu
 # Source code revision number                                       git:a698b45
 &GLOBAL
   PRINT_LEVEL  LOW
   PROJECT_NAME BNS
   RUN_TYPE  MD
   WALLTIME 86400
 &END GLOBAL
 &MOTION
   &MD
     ENSEMBLE  NVT
     STEPS  2000
     TIMESTEP     9.9999999999999989E-01
     STEP_START_VAL  42918
     TIME_START_VAL     4.2917999999987733E+04
     ECONS_START_VAL    -8.4829258453007060E+03
     TEMPERATURE     3.0000000000000000E+02
     TEMP_KIND  T
     &BAROSTAT
       PRESSURE     1.0000000000000000E+00
       TIMECON     9.9999999999999986E+01
       VIRIAL  Z
     &END BAROSTAT
     &THERMOSTAT
       TYPE  NOSE
       REGION  GLOBAL
       &NOSE
         LENGTH  4
         TIMECON     9.9999999999999986E+01
         MTS  2
         &COORD
               3.0083114869598404E-01    2.0831660018811640E+01   -5.5632059519420070E+00    1.1119109572644582E+01
         &END COORD
         &VELOCITY
               7.9940831943689863E-06    3.1527648856514008E-04   -1.6997248326474528E-04   -1.3537632297068263E-04
         &END VELOCITY
         &MASS
               7.0145132684705392E+07    1.6237299232570693E+04    1.6237299232570693E+04    1.6237299232570693E+04
         &END MASS
         &FORCE
               2.0125881682507838E-10    2.1756116778178319E-07    4.0889250391859838E-08   -2.9619368782920954E-08
         &END FORCE
       &END NOSE
     &END THERMOSTAT
     &AVERAGES  T
       &RESTART_AVERAGES
         ITIMES_START  1
         AVECPU     2.3782198984520008E+01
         AVEHUGONIOT     0.0000000000000000E+00
         AVETEMP_BARO     0.0000000000000000E+00
         AVEPOT    -8.4857915074927514E+03
         AVEKIN     2.0571909975510718E+00
         AVETEMP     3.0074479764852197E+02
         AVEKIN_QM     0.0000000000000000E+00
         AVETEMP_QM     0.0000000000000000E+00
         AVEVOL     2.2086622704881217E+05
         AVECELL_A     4.9287836997924963E+01
         AVECELL_B     4.7426456757032106E+01
         AVECELL_C     9.4486306644279694E+01
         AVEALPHA     9.0000000000000000E+01
         AVEBETA     9.0000000000000000E+01
         AVEGAMMA     9.0000000000000000E+01
         AVE_ECONS     4.5377696384523226E+01
         AVE_PRESS     0.0000000000000000E+00
         AVE_PXX     0.0000000000000000E+00
       &END RESTART_AVERAGES
     &END AVERAGES
     &PRINT
       &TEMP_KIND  SILENT
       &END TEMP_KIND
     &END PRINT
   &END MD
   &FREE_ENERGY
     &METADYN
       MIN_DISP    -1.0000000000000000E+00
       OLD_HILL_NUMBER  0
       OLD_HILL_STEP  0
       DO_HILLS  F
       STEP_START_VAL  42918
       NHILLS_START_VAL  0
       &METAVAR
         SCALE     1.0000000000000000E+00
         COLVAR  1
       &END METAVAR
       &PRINT
         &COLVAR  SILENT
           COMMON_ITERATION_LEVELS  3
           &EACH
             MD  1
           &END EACH
         &END COLVAR
       &END PRINT
     &END METADYN
   &END FREE_ENERGY
   &CONSTRAINT
     &COLLECTIVE
       COLVAR  1
       INTERMOLECULAR  T
       &RESTRAINT
         K     4.4625385281452931E-04
       &END RESTRAINT
     &END COLLECTIVE
     &COLVAR_RESTART
           1.4395279740594544E+01
     &END COLVAR_RESTART
   &END CONSTRAINT
   &PRINT
     &TRAJECTORY  SILENT
       &EACH
         MD  1
       &END EACH
     &END TRAJECTORY
     &VELOCITIES  SILENT
       &EACH
         MD  1
       &END EACH
     &END VELOCITIES
     &FORCES  SILENT
       UNIT eV*angstrom^-1
       &EACH
         MD  1
       &END EACH
     &END FORCES
     &RESTART  SILENT
       &EACH
         MD  1
       &END EACH
     &END RESTART
     &RESTART_HISTORY  SILENT
       &EACH
         MD  100
       &END EACH
     &END RESTART_HISTORY
   &END PRINT
 &END MOTION
 &FORCE_EVAL
   METHOD  QS
   &DFT
     BASIS_SET_FILE_NAME /users/gtocci/scratch_daint_3000/data_cp2k//BASIS_MOLOPT
     POTENTIAL_FILE_NAME /users/gtocci/scratch_daint_3000/data_cp2k//GTH_POTENTIALS
     WFN_RESTART_FILE_NAME ./BNS-RESTART.wfn
     CHARGE  -1
     &SCF
       MAX_SCF  10
       EPS_SCF     9.9999999999999995E-07
       SCF_GUESS  RESTART
       &OT  T
         MINIMIZER  DIIS
         PRECONDITIONER  FULL_KINETIC
       &END OT
       &OUTER_SCF  T
         EPS_SCF     9.9999999999999995E-07
         MAX_SCF  30
       &END OUTER_SCF
       &PRINT
         &RESTART  SILENT
           ADD_LAST  NUMERIC
           &EACH
             QS_SCF  50
           &END EACH
         &END RESTART
       &END PRINT
     &END SCF
     &QS
       MAP_CONSISTENT  T
       EXTRAPOLATION  ASPC
       EXTRAPOLATION_ORDER  4
     &END QS
     &MGRID
       NGRIDS  5
       CUTOFF     4.6000000000000000E+02
     &END MGRID
     &XC
       DENSITY_CUTOFF     1.0000000000000000E-10
       GRADIENT_CUTOFF     1.0000000000000000E-10
       TAU_CUTOFF     1.0000000000000000E-10
       &XC_GRID
         XC_DERIV  SPLINE2_SMOOTH
       &END XC_GRID
       &XC_FUNCTIONAL  NO_SHORTCUT
         &LIBXC  T
           FUNCTIONAL XC_GGA_X_OPTB88_VDW
         &END LIBXC
         &VWN  T
         &END VWN
       &END XC_FUNCTIONAL
       &VDW_POTENTIAL
         POTENTIAL_TYPE  NON_LOCAL
         &NON_LOCAL
           TYPE  DRSLL
           VERBOSE_OUTPUT  T
           KERNEL_FILE_NAME /users/gtocci/scratch_daint_3000/data_cp2k//vdW_kernel_table.dat
           CUTOFF     3.6000000000000000E+02
         &END NON_LOCAL
       &END VDW_POTENTIAL
     &END XC
     &REAL_TIME_PROPAGATION
       INITIAL_WFN  SCF_WFN
     &END REAL_TIME_PROPAGATION
     &PRINT
       &MULLIKEN  SILENT
         FILENAME =BNS.mulliken
       &END MULLIKEN
     &END PRINT
   &END DFT
   &SUBSYS
     &CELL
       A     2.6082000000000019E+01    0.0000000000000000E+00    0.0000000000000000E+00
       B     0.0000000000000000E+00    2.5097000000000001E+01    0.0000000000000000E+00
       C     0.0000000000000000E+00    0.0000000000000000E+00    5.0000000000000028E+01
       MULTIPLE_UNIT_CELL  1 1 1
     &END CELL
     &COORD
B   -1.1572108051351956E+01    9.6008718710952969E+00   -2.1049373758816913E+01
B   -9.3684432002611828E+00    1.0825837285673325E+01   -2.1088190206475961E+01
B   -1.1546898322466104E+01    1.2136009379142072E+01   -2.1105312089161494E+01
B   -9.3380647193260611E+00    1.3344155552565782E+01   -2.1186399537815120E+01
B   -1.1496932235065700E+01    1.4630901889769685E+01   -2.1058419798974558E+01
B   -9.3480642783245909E+00    1.5817677621420092E+01   -2.1157745639763014E+01
B   -1.1567574400761307E+01    1.7205583607733121E+01   -2.1120715467725535E+01
B   -9.3841617835022682E+00    1.8380989551008700E+01   -2.0958593653100557E+01
B   -1.1519935215325095E+01    1.9712005281501117E+01   -2.0976912840686097E+01
B   -9.3644038999099077E+00    2.0884053273986211E+01   -2.1019250728945305E+01
B   -7.2041170798407022E+00    9.6199450527257966E+00   -2.1250157939865769E+01
B   -4.9878369045995203E+00    1.0860638587464670E+01   -2.1347385313128463E+01
B   -7.2050304426365441E+00    1.2169827073472105E+01   -2.1413970446680302E+01
B   -5.0077826221441271E+00    1.3394358725143819E+01   -2.1444282585326565E+01
B   -7.1667948380286068E+00    1.4672885395519085E+01   -2.1337521195701552E+01
B   -5.0164364039803520E+00    1.5879760685497880E+01   -2.1292942271573637E+01
B   -7.1717077096869861E+00    1.7178135039589211E+01   -2.1179714665792154E+01
B   -4.9889990559825437E+00    1.8319983221782746E+01   -2.1124367975081597E+01
B   -7.2070000687867513E+00    1.9609129205537638E+01   -2.1081080262736787E+01
B   -4.9932464797825471E+00    2.0907714073343040E+01   -2.1149919085265324E+01
B   -2.7892837652675233E+00    9.5808496633578049E+00   -2.1448613952849872E+01
B   -6.3018086757785430E-01    1.0849739452080103E+01   -2.1538744346725039E+01
B   -2.8456095788148721E+00    1.2142219111373002E+01   -2.1391653643895637E+01
B   -6.3142612158765543E-01    1.3352610953467348E+01   -2.1413211938667345E+01
B   -2.8042587190345443E+00    1.4639314953844732E+01   -2.1301359997865369E+01
B   -6.5258973331247605E-01    1.5903659145464347E+01   -2.1316383563832602E+01
B   -2.8062289687868507E+00    1.7139659693323249E+01   -2.1336800646985974E+01
B   -6.3942072296620478E-01    1.8410604383768963E+01   -2.1390724507264476E+01
B   -2.8184530467042643E+00    1.9625840654219100E+01   -2.1280894919996172E+01
B   -6.5584694858841230E-01    2.0876583663190164E+01   -2.1162268540652374E+01
N   -1.0069759184183598E+01    9.5509412439504757E+00   -2.1075266727859447E+01
N   -7.9764023069334451E+00    1.0894187054207046E+01   -2.1292751354937824E+01
N   -1.0097491924786070E+01    1.2100347563189738E+01   -2.1063814931031036E+01
N   -7.9382228993624517E+00    1.3449483218465042E+01   -2.1382047539148672E+01
N   -1.0065650532278974E+01    1.4580941687460582E+01   -2.1117457277748805E+01
N   -7.9089982445684157E+00    1.5929954314963425E+01   -2.1324250578404971E+01
N   -1.0074012602354481E+01    1.7091926609183091E+01   -2.0971651060572196E+01
N   -7.9238300401884869E+00    1.8395581597496925E+01   -2.1093717198265736E+01
N   -1.0099319926291949E+01    1.9630205861544216E+01   -2.0997495110368753E+01
N   -7.8855733433421946E+00    2.0853068273305333E+01   -2.1036984585741486E+01
N   -5.7119029160817121E+00    9.6264199704857223E+00   -2.1331695079055180E+01
N   -3.5619235427986062E+00    1.0916717837492593E+01   -2.1371437424880071E+01
N   -5.7674982501510454E+00    1.2134653031344898E+01   -2.1531892083562827E+01
N   -3.5648582823057615E+00    1.3413934263289299E+01   -2.1390180780601046E+01
N   -5.7438816783618059E+00    1.4634132508950730E+01   -2.1340513426879550E+01
N   -3.5684868000467129E+00    1.5873645631872247E+01   -2.1317755366096897E+01
N   -5.7524752954234453E+00    1.7160252667464167E+01   -2.1100944907018402E+01
N   -3.5212225597816098E+00    1.8342221263432464E+01   -2.1253790202801611E+01
N   -5.7051171485158250E+00    1.9623989152951022E+01   -2.1069493443652338E+01
N   -3.5248131225476489E+00    2.0920614449250166E+01   -2.1057251014238556E+01
N   -1.3954418119482597E+00    9.6069429508364426E+00   -2.1720366856642197E+01
N    7.9458898148935042E-01    1.0858344543415935E+01   -2.1653754385488849E+01
N   -1.4020475230425189E+00    1.2144711677432950E+01   -2.1412480431172398E+01
N    8.6478570854354131E-01    1.3370858224591192E+01   -2.1553500120605950E+01
N   -1.3717449138678268E+00    1.4642924337748333E+01   -2.1315569172028390E+01
N    7.8720010261960671E-01    1.5890466331945131E+01   -2.1331007846392570E+01
N   -1.3377089657909278E+00    1.7186538293096959E+01   -2.1328996919446347E+01
N    8.6454954870206024E-01    1.8406897300774901E+01   -2.1289234852186283E+01
N   -1.3768720302473081E+00    1.9626614378026417E+01   -2.1276754908378784E+01
N    8.0098046419119906E-01    2.0841288938779130E+01   -2.1024517971532227E+01
B   -1.1540082135958894E+01    2.2139734666855237E+01   -2.0887053930897014E+01
B   -9.3081224652118095E+00    2.3403898360993647E+01   -2.0997884488915815E+01
B   -1.1537287260736344E+01    2.4613796656811907E+01   -2.0860454062008412E+01
B   -9.3584116775083483E+00    2.5887715493832129E+01   -2.0757800315640548E+01
B   -1.1549821766133558E+01    2.7101845461576396E+01   -2.0864539928923989E+01
B   -9.4037711758438078E+00    2.8396607288161189E+01   -2.0824584754868987E+01
B   -1.1572618132157368E+01    2.9652099876083408E+01   -2.1111937514078281E+01
B   -9.3736660919911241E+00    3.0891134441539279E+01   -2.1133138919524303E+01
B   -1.1553809892203715E+01    3.2160476828596366E+01   -2.1107444417772218E+01
B   -9.3602338397493732E+00    3.3436336212624795E+01   -2.1219492217906499E+01
B   -7.1805089123921748E+00    2.2098048953717200E+01   -2.1211988217004901E+01
B   -5.0141091707854750E+00    2.3412927839259311E+01   -2.1314015133112445E+01
B   -7.1875167758886533E+00    2.4636460173398600E+01   -2.1163119071768570E+01
B   -5.0628362899025534E+00    2.5944963827993405E+01   -2.1142614698687517E+01
B   -7.1479319068888421E+00    2.7134397826752245E+01   -2.0928862758779303E+01
B   -5.0002529663691915E+00    2.8404309554340664E+01   -2.1271966880624930E+01
B   -7.2047311298887236E+00    2.9693702226649730E+01   -2.1089662731070923E+01
B   -4.9723407676853748E+00    3.0894554363341435E+01   -2.1282550562587812E+01
B   -7.1960536972997140E+00    3.2230503643743951E+01   -2.1167789386137066E+01
B   -4.9894377071136820E+00    3.3473951045430653E+01   -2.1295820299939557E+01
B   -2.7947412226954658E+00    2.2154503036508988E+01   -2.0981882345217684E+01
B   -6.7499273756155242E-01    2.3380511941398890E+01   -2.1040270881021168E+01
B   -2.8090371027541545E+00    2.4585139627035787E+01   -2.1149319140428798E+01
B   -6.7014834436620907E-01    2.5892126969739849E+01   -2.1126346651124216E+01
B   -2.8288178813236460E+00    2.7113689148658302E+01   -2.1219697551350247E+01
B   -6.2822248488013765E-01    2.8406719178306250E+01   -2.1264390726223340E+01
B   -2.7486361293180881E+00    2.9665496580961836E+01   -2.1295780034906354E+01
B   -6.3911938178013539E-01    3.0941721658813794E+01   -2.1637598329381479E+01
B   -2.8373284975873432E+00    3.2176775417681569E+01   -2.1516937892484538E+01
B   -6.9863374420038593E-01    3.3482258030408161E+01   -2.1780799284784155E+01
N   -1.0037854999839245E+01    2.2151727546543729E+01   -2.0893324056641479E+01
N   -7.8878421610379119E+00    2.3400685490572847E+01   -2.1204578084188391E+01
N   -1.0087072318701168E+01    2.4670413514550958E+01   -2.0914900954849710E+01
N   -7.8979300414096718E+00    2.5905254276975842E+01   -2.0958720998933480E+01
N   -1.0137328668859269E+01    2.7172047999747019E+01   -2.0728820051873999E+01
N   -7.9271668004789397E+00    2.8454270079363038E+01   -2.0942624991654302E+01
N   -1.0107748316078148E+01    2.9681403733827519E+01   -2.0993101757425976E+01
N   -7.9043281224417159E+00    3.0964713167059283E+01   -2.1112848795869546E+01
N   -1.0096064741937422E+01    3.2172352804856715E+01   -2.1146618232320961E+01
N   -7.9262653121199609E+00    3.3467433829846136E+01   -2.1315953646831709E+01
N   -5.7336947367308886E+00    2.2155572868608534E+01   -2.1290716924020966E+01
N   -3.5763138454006351E+00    2.3387463445020799E+01   -2.1128968814851550E+01
N   -5.7430853831265791E+00    2.4670488100948646E+01   -2.1408984454697563E+01
N   -3.5725669570278544E+00    2.5890310372017307E+01   -2.1241726148040378E+01
N   -5.7486598323486637E+00    2.7197064290083826E+01   -2.1041755789965183E+01
N   -3.5500092103150012E+00    2.8445785151079551E+01   -2.1305439553412118E+01
N   -5.7432451241011986E+00    2.9670455745570322E+01   -2.1343130997733439E+01
N   -3.5358027851646145E+00    3.0887374234276614E+01   -2.1309260694057166E+01
N   -5.6986302698797315E+00    3.2223071076259309E+01   -2.1187390727123233E+01
N   -3.5649301909211162E+00    3.3445471772625488E+01   -2.1377348037856585E+01
N   -1.3473435896026826E+00    2.2128428792783730E+01   -2.1049367115929964E+01
N    7.7005833977237970E-01    2.3324991367671405E+01   -2.0988643442222799E+01
N   -1.3967045288497788E+00    2.4604456917882306E+01   -2.1101413381386127E+01
N    7.6911541641978820E-01    2.5816676548331074E+01   -2.0926313774139377E+01
N   -1.3859838348785265E+00    2.7121407744535230E+01   -2.1281603398777634E+01
N    7.7589577494966488E-01    2.8372573771198113E+01   -2.1240734784112860E+01
N   -1.3156209367398020E+00    2.9642077427907516E+01   -2.1433856732811822E+01
N    7.8655886903059680E-01    3.0882804992916078E+01   -2.1586524033588869E+01
N   -1.3524299441886793E+00    3.2203217616493077E+01   -2.1687221200977742E+01
N    7.8581729880047246E-01    3.3443507593738140E+01   -2.1845233253008235E+01
B    1.4833852341273395E+00    9.5968462142551054E+00   -2.1587691033797114E+01
B    3.6589910883894743E+00    1.0905354624358905E+01   -2.1185744220893337E+01
B    1.5441041211074942E+00    1.2128714454572531E+01   -2.1434750625991430E+01
B    3.7133961246160143E+00    1.3405969791708456E+01   -2.1217421580987800E+01
B    1.5337486419043973E+00    1.4641177972782257E+01   -2.1410539136498173E+01
B    3.7413810632498752E+00    1.5919830721450479E+01   -2.1114321747172706E+01
B    1.5570109953198363E+00    1.7148358786604067E+01   -2.1256322697144679E+01
B    3.7459958765893573E+00    1.8414809321483023E+01   -2.1076037621347396E+01
B    1.6378137557911954E+00    1.9648027331143311E+01   -2.1065831942485431E+01
B    3.8311310722137413E+00    2.0930126558144106E+01   -2.0876632134854884E+01
B    5.8393686083826770E+00    9.6151161189684053E+00   -2.1103972271814431E+01
B    8.0153615775298146E+00    1.0876988563701127E+01   -2.1088211365379109E+01
B    5.8491759531123346E+00    1.2103190412725555E+01   -2.1114450776693769E+01
B    8.0697554528214397E+00    1.3344345660988804E+01   -2.1149148241373908E+01
B    5.9646437721251653E+00    1.4658663897738350E+01   -2.1076650607790469E+01
B    8.1101598075677046E+00    1.5886747394141659E+01   -2.1095702074439455E+01
B    5.9177932626218732E+00    1.7137908807402859E+01   -2.1021632805122465E+01
B    8.0679491114719557E+00    1.8381550069012196E+01   -2.1039974508728186E+01
B    5.8869320646579357E+00    1.9714453426673781E+01   -2.0992724178105540E+01
B    8.0409098335045375E+00    2.0898373669965924E+01   -2.0917240572202779E+01
B    1.0211038512677201E+01    9.6153270473866606E+00   -2.1125434378658412E+01
B    1.2364741750484990E+01    1.0876326194212915E+01   -2.1194417327141533E+01
B    1.0257341733804862E+01    1.2140861726842614E+01   -2.1152777050267591E+01
B    1.2382263880123300E+01    1.3393001439296535E+01   -2.1140984181810765E+01
B    1.0242395417962772E+01    1.4655946101903135E+01   -2.1263036045556138E+01
B    1.2370292078649976E+01    1.5962374339440935E+01   -2.1034229051429147E+01
B    1.0228131889145834E+01    1.7226708480353931E+01   -2.1036664349450778E+01
B    1.2376837578270628E+01    1.8433978630205495E+01   -2.0989355187475859E+01
B    1.0215037413482905E+01    1.9687715059882667E+01   -2.0940657924194912E+01
B    1.2412283597865354E+01    2.0924116847211774E+01   -2.0889689077011592E+01
N    2.9805781805924885E+00    9.6022921243432204E+00   -2.1367650951345343E+01
N    5.1230120684374230E+00    1.0843304856104558E+01   -2.0997115911792683E+01
N    2.9746548952633436E+00    1.2113292668412935E+01   -2.1236634621461860E+01
N    5.1501672913381977E+00    1.3433844653655916E+01   -2.1146586641013595E+01
N    2.9808073831334321E+00    1.4660022135644693E+01   -2.1263503346933319E+01
N    5.1983521521878338E+00    1.5903123718894639E+01   -2.0978812495969439E+01
N    2.9639134834823326E+00    1.7164622523370593E+01   -2.1098492101626015E+01
N    5.2226121267304721E+00    1.8456920807130007E+01   -2.0959498789530198E+01
N    3.0737787597072121E+00    1.9696319330638449E+01   -2.1018765728661670E+01
N    5.2255949201738954E+00    2.0969795506245518E+01   -2.0979841606658763E+01
N    7.3005973565312594E+00    9.5722670125446143E+00   -2.1122058365177207E+01
N    9.4645415387542879E+00    1.0874236080411475E+01   -2.1255390708388234E+01
N    7.2972329905728071E+00    1.2128675474695585E+01   -2.1122764956286204E+01
N    9.4939090168234905E+00    1.3393263796683151E+01   -2.1168425786241361E+01
N    7.3762753532130985E+00    1.4624413478217562E+01   -2.1072020157523596E+01
N    9.5422621627494166E+00    1.5906291111544382E+01   -2.1233248877750004E+01
N    7.3466513889738021E+00    1.7174595332832666E+01   -2.1053475405077592E+01
N    9.5169929955887724E+00    1.8396787166198230E+01   -2.0935851837328027E+01
N    7.3074010696176837E+00    1.9635411477845334E+01   -2.0939245643604988E+01
N    9.4966945832826308E+00    2.0929086311337041E+01   -2.0927706992213462E+01
N    1.1667812447736553E+01    9.6165235416913184E+00   -2.1208389406975801E+01
N    1.3790702169658736E+01    1.0853037113593276E+01   -2.1076768834569226E+01
N    1.1686534580655653E+01    1.2161835526611513E+01   -2.1260637823147555E+01
N    1.3814904464179252E+01    1.3399974282197487E+01   -2.1146328508579913E+01
N    1.1694616928720800E+01    1.4687133558614272E+01   -2.1247495915110214E+01
N    1.3814807430350424E+01    1.5934381234911447E+01   -2.1081779692197319E+01
N    1.1680365337783959E+01    1.7202064819040423E+01   -2.0950835184273938E+01
N    1.3826765619187178E+01    1.8477806641338969E+01   -2.1146994240705741E+01
N    1.1640739276648317E+01    1.9699695423778451E+01   -2.0900182384955876E+01
N    1.3823492959727245E+01    2.0921613015374387E+01   -2.1018619221424018E+01
B    1.5984686722610311E+00    2.2096450851607745E+01   -2.0875316796515772E+01
B    3.6668813054847833E+00    2.3399552406076200E+01   -2.1009061692175464E+01
B    1.4893417807363662E+00    2.4573611591488760E+01   -2.0921027916414282E+01
B    3.6238142703870206E+00    2.5916036297942597E+01   -2.1115468184913745E+01
B    1.4924088327685874E+00    2.7129149711877243E+01   -2.1070610990336533E+01
B    3.6350610161211239E+00    2.8408851602315973E+01   -2.1203965072884387E+01
B    1.5080602203255675E+00    2.9642105670647645E+01   -2.1396065976166600E+01
B    3.6306333325461755E+00    3.0956746346656242E+01   -2.1330285476902638E+01
B    1.4676655672320185E+00    3.2216359257518072E+01   -2.1612817796467191E+01
B    3.7069387060810137E+00    3.3452884809230461E+01   -2.1479231111717535E+01
B    5.9142056219970138E+00    2.2165981815733332E+01   -2.0877095654277099E+01
B    8.0352530135642759E+00    2.3440045952330014E+01   -2.1005471709176287E+01
B    5.8478497410548016E+00    2.4668384920147389E+01   -2.1186032425629495E+01
B    7.9499871116850844E+00    2.5987412284203742E+01   -2.0827072978781619E+01
B    5.8094736340785156E+00    2.7181616359362579E+01   -2.0972794384139551E+01
B    8.0029513988581851E+00    2.8462380505543660E+01   -2.0831968975137702E+01
B    5.8451717583001166E+00    2.9673083408238735E+01   -2.0910226635717535E+01
B    8.0345610392655651E+00    3.0906464883129651E+01   -2.1006871296430447E+01
B    5.8598645525367976E+00    3.2230038734179722E+01   -2.1181403725150826E+01
B    8.0471039337027790E+00    3.3433271958359661E+01   -2.1020268976142141E+01
B    1.0243249609614447E+01    2.2178664378962626E+01   -2.0949671347348346E+01
B    1.2381962082470238E+01    2.3462169305415877E+01   -2.0863912165837217E+01
B    1.0124509782479210E+01    2.4713293553091162E+01   -2.0836635462101967E+01
B    1.2349341782844286E+01    2.5962029223838670E+01   -2.0852867568287898E+01
B    1.0164986013907534E+01    2.7161324803677047E+01   -2.0879102927723565E+01
B    1.2362378877105268E+01    2.8490121825080241E+01   -2.0915148722902664E+01
B    1.0143845369438457E+01    2.9658558636071572E+01   -2.0898769057798070E+01
B    1.2321017008489335E+01    3.0949796429079985E+01   -2.1084403708763752E+01
B    1.0185721143093323E+01    3.2217834378383252E+01   -2.0982626321808059E+01
B    1.2377856745885525E+01    3.3473612483861523E+01   -2.1062304089512523E+01
N    3.0197436601319816E+00    2.2153333296737937E+01   -2.0873049926557911E+01
N    5.1770378939838180E+00    2.3403784101306478E+01   -2.1151112559696237E+01
N    2.9496207454819467E+00    2.4652283757251308E+01   -2.0992496862873150E+01
N    5.1140246307764583E+00    2.5931636637681986E+01   -2.1049652143330398E+01
N    2.9153816038740636E+00    2.7184136737094480E+01   -2.1172995995169984E+01
N    5.0889680205644989E+00    2.8445398021921562E+01   -2.0915779051029229E+01
N    2.9527336714467651E+00    2.9664817187224987E+01   -2.1326223219314326E+01
N    5.1715001309049207E+00    3.0971753024143045E+01   -2.1093036584627765E+01
N    2.9337186141761493E+00    3.2215030175023472E+01   -2.1514714301981716E+01
N    5.1695369839915362E+00    3.3462307034141908E+01   -2.1321811946851774E+01
N    7.3563980918960663E+00    2.2163923078334278E+01   -2.0759513911132149E+01
N    9.4952720063715805E+00    2.3451438280170553E+01   -2.0995227178714870E+01
N    7.2557533342559557E+00    2.4668702443841315E+01   -2.1058629443031332E+01
N    9.4234293577981312E+00    2.5927756891732674E+01   -2.0734487588187989E+01
N    7.2736601495033861E+00    2.7232782033668837E+01   -2.0799995601494313E+01
N    9.4339660481438550E+00    2.8449532130476626E+01   -2.0822919823375255E+01
N    7.2926478206465326E+00    2.9647633421686709E+01   -2.1024002378472577E+01
N    9.4719547832516859E+00    3.0954483551559751E+01   -2.1020425000868919E+01
N    7.3243201033202894E+00    3.2159956584382044E+01   -2.1031129852414313E+01
N    9.4810680514559476E+00    3.3493319905966359E+01   -2.1029008675315964E+01
N    1.1668767655186052E+01    2.2179157888894867E+01   -2.0985791744957638E+01
N    1.3840532873567698E+01    2.3384030954184578E+01   -2.0831911070124118E+01
N    1.1618015809902067E+01    2.4674885065892514E+01   -2.0842756095218171E+01
N    1.3797018774917534E+01    2.5861059040142905E+01   -2.0805772052719988E+01
N    1.1590467874264217E+01    2.7213109423031860E+01   -2.0883288060896007E+01
N    1.3786539307027939E+01    2.8415433610051490E+01   -2.0941176223720671E+01
N    1.1608122650960617E+01    2.9685317568990527E+01   -2.0913329574511575E+01
N    1.3787467839804279E+01    3.0883076555275416E+01   -2.1183990013254945E+01
N    1.1598809176535225E+01    3.2230117086320845E+01   -2.1037239184978088E+01
N    1.3807422399712234E+01    3.3423353332271255E+01   -2.1027535889971684E+01
O    4.8000115253896759E+01    2.0293609463440653E+01   -5.3879243931428364E+00
H    4.7835394989287948E+01    1.9508741754134984E+01   -5.9780563418345842E+00
H    4.7722848653707352E+01    2.1071160976943982E+01   -5.9370283975769347E+00
O    1.9906317636179100E+01    1.3291862174125727E+01   -1.4620585247761735E+01
H    1.9897158176863364E+01    1.4011486221834812E+01   -1.3986020595641000E+01
H    2.0232887073537103E+01    1.2561603825137722E+01   -1.4063282946161001E+01
O    5.7591817029699314E+01    1.5570190861302004E+01   -6.7593446007334581E+00
H    5.8083076291242087E+01    1.5856384924020665E+01   -7.6387574696682785E+00
H    5.7186248469907817E+01    1.6308510647617442E+01   -6.2553019581797553E+00
O    2.5610695047726193E+01   -1.5177739377586101E+00   -1.7809969640208525E+01
H    2.5233804981602784E+01   -6.3540977979897295E-01   -1.7695526446130650E+01
H    2.5038732971221609E+01   -2.1601042472355170E+00   -1.7347005597117466E+01
O    6.7989097399392392E+01   -3.2092489106154616E+01   -7.4966061971696520E+00
H    6.8990107190449663E+01   -3.2076375146454275E+01   -7.3853464307521124E+00
H    6.7800026805991649E+01   -3.1757479307460546E+01   -8.4223551655920019E+00
O    6.2345920341217223E+01    8.0914534832456440E+00   -1.8121873102287005E+01
H    6.3075729034134888E+01    7.5502343447082252E+00   -1.8480304138717582E+01
H    6.2912502977832929E+01    8.7045741068719202E+00   -1.7568949226899591E+01
O   -1.2335177948374366E+01    5.2523406110841279E+01   -5.0844288571880574E+00
H   -1.2528752121875755E+01    5.3474322559204758E+01   -5.2182793217860395E+00
H   -1.3175329608947177E+01    5.2075304045728366E+01   -4.9696734386540635E+00
O    7.5294116865072723E+01   -1.4464801287001032E+00   -7.1799643749445643E+00
H    7.4513454592371190E+01   -1.8910070649850501E+00   -7.4892636541331470E+00
H    7.5086553800327337E+01   -8.2610024757569278E-01   -6.4089310838224183E+00
O    1.1251443273796663E+02    5.5865543230122036E+01   -7.5052445751189634E+00
H    1.1312860493672349E+02    5.5266059568052029E+01   -7.0070855306222191E+00
H    1.1296421407102063E+02    5.6154521995508034E+01   -8.3517525808175908E+00
O   -3.7134459775808928E+01    2.2081294007488623E+01   -1.4629801315667796E+01
H   -3.6554557721016991E+01    2.1782076427471999E+01   -1.5405759834952635E+01
H   -3.6664734525045169E+01    2.1646232266744651E+01   -1.3871144917087072E+01
O    1.4239056584233987E+01    8.5435930254910684E+00   -5.3288655926053341E+00
H    1.3941319915773027E+01    8.4893803737890732E+00   -6.2949890249290821E+00
H    1.4076320348249057E+01    7.5752860299223004E+00   -5.1353482195356088E+00
O    6.3375652914527748E+01   -1.7521980901148670E+01   -8.2198694275298916E+00
H    6.3730467999320737E+01   -1.8418783305466114E+01   -8.0317777134163908E+00
H    6.2862469863834427E+01   -1.7111016468287936E+01   -7.4639015097127039E+00
O    8.4359778538765696E+01    7.9827506274191634E+01   -1.3839727077393240E+01
H    8.5018580454522791E+01    7.9225582101727838E+01   -1.4360141620044365E+01
H    8.4807651502421280E+01    8.0741681638426584E+01   -1.3759289212748921E+01
O    4.7621368598655714E+01    1.3600699578377984E+01   -1.0749835496275406E+01
H    4.7760123281741542E+01    1.4473433111821796E+01   -1.0240361822684171E+01
H    4.6872333890913040E+01    1.3738457945701331E+01   -1.1344381222355675E+01
O   -1.5858877940409187E+01    8.3901066605117300E+00   -1.3989604335972464E+01
H   -1.6611643949275994E+01    8.6831720130345431E+00   -1.4594183510083832E+01
H   -1.6268947316740142E+01    8.3202105206652863E+00   -1.3047899614978107E+01
O    4.9150143572828867E+01    7.5460881828236701E+00   -1.4926094556201580E+01
H    4.9679080350523826E+01    7.6648114469137365E+00   -1.4110554720456292E+01
H    4.8263744625730290E+01    7.4424777822722259E+00   -1.4518667440862997E+01
O    5.6034233965896888E+01    2.2457556196759025E+01   -9.1803261109927803E+00
H    5.6540965822132648E+01    2.2474603401398070E+01   -8.3342438434598094E+00
H    5.5133796944108589E+01    2.2145973521356694E+01   -9.0188066391909718E+00
O    5.7331832165674321E+01    3.3473139626354140E+01   -1.2103565284007878E+01
H    5.8247502939650900E+01    3.3766368077984929E+01   -1.1743701647087729E+01
H    5.6652485121541972E+01    3.4214606698414208E+01   -1.1811837569974401E+01
O    2.6139563889246034E+01   -1.4974890144025634E+01   -1.8917821352112668E+01