 # Version information for this restart file 
 # current date 2020-01-19 14:05:25.024
 # current working dir /scratch/snx3000/gtocci/gtocci/MEMBRANES/AIMD_US_IONS_BN/aimd_us_iodide/us_26
 # Program compiled at                              Fri Nov 22 15:19:42 CET 2019
 # Program compiled on                                                  daint102
 # Program compiled for                                   CRAY_XC50-gfortran_gpu
 # Source code revision number                                       git:a698b45
 &GLOBAL
   PRINT_LEVEL  LOW
   PROJECT_NAME BNS
   RUN_TYPE  MD
   WALLTIME 86400
 &END GLOBAL
 &MOTION
   &MD
     ENSEMBLE  NVT
     STEPS  2000
     TIMESTEP     9.9999999999999989E-01
     STEP_START_VAL  40839
     TIME_START_VAL     4.0838999999990920E+04
     ECONS_START_VAL    -8.4830856865384030E+03
     TEMPERATURE     3.0000000000000000E+02
     TEMP_KIND  T
     &BAROSTAT
       PRESSURE     1.0000000000000000E+00
       TIMECON     9.9999999999999986E+01
       VIRIAL  Z
     &END BAROSTAT
     &THERMOSTAT
       TYPE  NOSE
       REGION  GLOBAL
       &NOSE
         LENGTH  4
         TIMECON     9.9999999999999986E+01
         MTS  2
         &COORD
               2.6011426327335518E-01    2.6339440137722640E+01    2.3976743290787104E+00   -1.2247978759254567E+01
         &END COORD
         &VELOCITY
               2.4003672685087731E-06    4.0468195778369364E-06   -3.3524178178409868E-04    3.3312746940978038E-05
         &END VELOCITY
         &MASS
               7.0145132684705392E+07    1.6237299232570693E+04    1.6237299232570693E+04    1.6237299232570693E+04
         &END MASS
         &FORCE
              -3.8241476749879680E-11   -3.3619197587598950E-08   -5.8493637101409505E-08    5.3877038403672158E-08
         &END FORCE
       &END NOSE
     &END THERMOSTAT
     &AVERAGES  T
       &RESTART_AVERAGES
         ITIMES_START  1
         AVECPU     2.4356074838733353E+01
         AVEHUGONIOT     0.0000000000000000E+00
         AVETEMP_BARO     0.0000000000000000E+00
         AVEPOT    -8.4858338692975231E+03
         AVEKIN     2.0531026853736072E+00
         AVETEMP     3.0014711925112977E+02
         AVEKIN_QM     0.0000000000000000E+00
         AVETEMP_QM     0.0000000000000000E+00
         AVEVOL     2.2086622704880903E+05
         AVECELL_A     4.9287836997924984E+01
         AVECELL_B     4.7426456757032106E+01
         AVECELL_C     9.4486306644279694E+01
         AVEALPHA     9.0000000000000000E+01
         AVEBETA     9.0000000000000000E+01
         AVEGAMMA     9.0000000000000000E+01
         AVE_ECONS     4.0440012398101878E+01
         AVE_PRESS     0.0000000000000000E+00
         AVE_PXX     0.0000000000000000E+00
       &END RESTART_AVERAGES
     &END AVERAGES
     &PRINT
       &TEMP_KIND  SILENT
       &END TEMP_KIND
     &END PRINT
   &END MD
   &FREE_ENERGY
     &METADYN
       MIN_DISP    -1.0000000000000000E+00
       OLD_HILL_NUMBER  0
       OLD_HILL_STEP  0
       DO_HILLS  F
       STEP_START_VAL  40839
       NHILLS_START_VAL  0
       &METAVAR
         SCALE     1.0000000000000000E+00
         COLVAR  1
       &END METAVAR
       &PRINT
         &COLVAR  SILENT
           COMMON_ITERATION_LEVELS  3
           &EACH
             MD  1
           &END EACH
         &END COLVAR
       &END PRINT
     &END METADYN
   &END FREE_ENERGY
   &CONSTRAINT
     &COLLECTIVE
       COLVAR  1
       INTERMOLECULAR  T
       &RESTRAINT
         K     4.4625385281452931E-04
       &END RESTRAINT
     &END COLLECTIVE
     &COLVAR_RESTART
           2.4788773471465579E+01
     &END COLVAR_RESTART
   &END CONSTRAINT
   &PRINT
     &TRAJECTORY  SILENT
       &EACH
         MD  1
       &END EACH
     &END TRAJECTORY
     &VELOCITIES  SILENT
       &EACH
         MD  1
       &END EACH
     &END VELOCITIES
     &FORCES  SILENT
       UNIT eV*angstrom^-1
       &EACH
         MD  1
       &END EACH
     &END FORCES
     &RESTART  SILENT
       &EACH
         MD  1
       &END EACH
     &END RESTART
     &RESTART_HISTORY  SILENT
       &EACH
         MD  100
       &END EACH
     &END RESTART_HISTORY
   &END PRINT
 &END MOTION
 &FORCE_EVAL
   METHOD  QS
   &DFT
     BASIS_SET_FILE_NAME /users/gtocci/scratch_daint_3000/data_cp2k//BASIS_MOLOPT
     POTENTIAL_FILE_NAME /users/gtocci/scratch_daint_3000/data_cp2k//GTH_POTENTIALS
     WFN_RESTART_FILE_NAME ./BNS-RESTART.wfn
     CHARGE  -1
     &SCF
       MAX_SCF  10
       EPS_SCF     9.9999999999999995E-07
       SCF_GUESS  RESTART
       &OT  T
         MINIMIZER  DIIS
         PRECONDITIONER  FULL_KINETIC
       &END OT
       &OUTER_SCF  T
         EPS_SCF     9.9999999999999995E-07
         MAX_SCF  30
       &END OUTER_SCF
       &PRINT
         &RESTART  SILENT
           ADD_LAST  NUMERIC
           &EACH
             QS_SCF  50
           &END EACH
         &END RESTART
       &END PRINT
     &END SCF
     &QS
       MAP_CONSISTENT  T
       EXTRAPOLATION  ASPC
       EXTRAPOLATION_ORDER  4
     &END QS
     &MGRID
       NGRIDS  5
       CUTOFF     4.6000000000000000E+02
     &END MGRID
     &XC
       DENSITY_CUTOFF     1.0000000000000000E-10
       GRADIENT_CUTOFF     1.0000000000000000E-10
       TAU_CUTOFF     1.0000000000000000E-10
       &XC_GRID
         XC_DERIV  SPLINE2_SMOOTH
       &END XC_GRID
       &XC_FUNCTIONAL  NO_SHORTCUT
         &LIBXC  T
           FUNCTIONAL XC_GGA_X_OPTB88_VDW
         &END LIBXC
         &VWN  T
         &END VWN
       &END XC_FUNCTIONAL
       &VDW_POTENTIAL
         POTENTIAL_TYPE  NON_LOCAL
         &NON_LOCAL
           TYPE  DRSLL
           VERBOSE_OUTPUT  T
           KERNEL_FILE_NAME /users/gtocci/scratch_daint_3000/data_cp2k//vdW_kernel_table.dat
           CUTOFF     3.6000000000000000E+02
         &END NON_LOCAL
       &END VDW_POTENTIAL
     &END XC
     &REAL_TIME_PROPAGATION
       INITIAL_WFN  SCF_WFN
     &END REAL_TIME_PROPAGATION
     &PRINT
       &MULLIKEN  SILENT
         FILENAME =BNS.mulliken
       &END MULLIKEN
     &END PRINT
   &END DFT
   &SUBSYS
     &CELL
       A     2.6082000000000019E+01    0.0000000000000000E+00    0.0000000000000000E+00
       B     0.0000000000000000E+00    2.5097000000000001E+01    0.0000000000000000E+00
       C     0.0000000000000000E+00    0.0000000000000000E+00    5.0000000000000028E+01
       MULTIPLE_UNIT_CELL  1 1 1
     &END CELL
     &COORD
B   -1.0413872555726130E+01    9.2171297972327952E+00   -2.4095375988227886E+01
B   -8.2849145049339743E+00    1.0498862474602779E+01   -2.3992494340603940E+01
B   -1.0418195198072238E+01    1.1711715990409303E+01   -2.4120823796367297E+01
B   -8.2380875965051725E+00    1.3050551602233959E+01   -2.4156844663785773E+01
B   -1.0376170680605645E+01    1.4252327258015308E+01   -2.4217259561186488E+01
B   -8.1996706256224279E+00    1.5557313621847507E+01   -2.4249939683411093E+01
B   -1.0422061045478793E+01    1.6799123244935792E+01   -2.4295934169042827E+01
B   -8.2277493237094941E+00    1.8010956427098527E+01   -2.4216535869991432E+01
B   -1.0410042726310849E+01    1.9275319830488112E+01   -2.4203461067148986E+01
B   -8.2177782960452443E+00    2.0555114184839599E+01   -2.4115826721647274E+01
B   -6.0529913044624619E+00    9.2147291469980619E+00   -2.4078663463604055E+01
B   -3.9127070453291055E+00    1.0589546575405192E+01   -2.4089000221413613E+01
B   -6.0736612599749309E+00    1.1736950507586981E+01   -2.3999000734132846E+01
B   -3.9592091679781500E+00    1.3068932548671325E+01   -2.3926900227761287E+01
B   -6.0721201081906093E+00    1.4287243297687205E+01   -2.4131206066684463E+01
B   -3.9242186795587317E+00    1.5567385337392258E+01   -2.4105406498900997E+01
B   -6.0722853463489965E+00    1.6825180675206923E+01   -2.4210847877170991E+01
B   -3.9214910106236140E+00    1.8054771933966649E+01   -2.4097181624548579E+01
B   -6.0911476066197174E+00    1.9308201072064112E+01   -2.4194746606606262E+01
B   -3.9356538113039088E+00    2.0553274255866071E+01   -2.3995927202914405E+01
B   -1.7352033962257893E+00    9.3405783670473230E+00   -2.3994993392266206E+01
B    4.2147227303534918E-01    1.0485756371890464E+01   -2.3759329635999102E+01
B   -1.6337093556788500E+00    1.1819190730942383E+01   -2.3890684129586887E+01
B    4.8259256834500053E-01    1.3018348360484010E+01   -2.3797402387429642E+01
B   -1.7552044428002027E+00    1.4330270755926362E+01   -2.3870750981971277E+01
B    4.7084411159203871E-01    1.5545280913918125E+01   -2.3788620124632306E+01
B   -1.6802916205157190E+00    1.6823533048390434E+01   -2.3875475361819262E+01
B    4.4568670925092596E-01    1.8057488158962748E+01   -2.3664573455086899E+01
B   -1.7265919189497105E+00    1.9294873168753419E+01   -2.3837587323962872E+01
B    4.2676109606013024E-01    2.0608682631785840E+01   -2.3647914147054170E+01
N   -8.9938536656788042E+00    9.2169351733236322E+00   -2.3920516728608796E+01
N   -6.8183822929946878E+00    1.0456409795178155E+01   -2.4142982293088327E+01
N   -8.9776181121416929E+00    1.1737794596219041E+01   -2.4032424343798009E+01
N   -6.7501582159752367E+00    1.2993123723427296E+01   -2.4241120197428298E+01
N   -8.8909014430643065E+00    1.4240844869786150E+01   -2.4287614909679725E+01
N   -6.7941748287719141E+00    1.5558999026701114E+01   -2.4176437896460737E+01
N   -8.9697404481431260E+00    1.6767854184173128E+01   -2.4175426655611524E+01
N   -6.8294230010100803E+00    1.8076149858924410E+01   -2.4250779561761554E+01
N   -8.9682924592296889E+00    1.9304739233703078E+01   -2.4128702251712358E+01
N   -6.7958367928126568E+00    2.0505926649862371E+01   -2.4068581292793468E+01
N   -4.6084724818768512E+00    9.3014043562012088E+00   -2.4205162574603083E+01
N   -2.3962649263274685E+00    1.0580192715218331E+01   -2.4104669237470599E+01
N   -4.6243814425632230E+00    1.1816800265297479E+01   -2.3794359123486743E+01
N   -2.4303381890738809E+00    1.3047666150346775E+01   -2.3849845531013401E+01
N   -4.6175151649314037E+00    1.4300985084203958E+01   -2.4034550700415863E+01
N   -2.5038061034235710E+00    1.5568954661794971E+01   -2.3985513871654618E+01
N   -4.6814660365664222E+00    1.6788499826643683E+01   -2.4146883801413090E+01
N   -2.5033407985234208E+00    1.8084758065820772E+01   -2.3898023048795022E+01
N   -4.6486737332563166E+00    1.9295554529491319E+01   -2.4225943864561142E+01
N   -2.4577189589084472E+00    2.0562362404753991E+01   -2.3944921069076607E+01
N   -2.9227178332008125E-01    9.2464006544600448E+00   -2.3810291053359840E+01
N    1.8680992847812352E+00    1.0528465813473943E+01   -2.3726428775019468E+01
N   -2.0809279672334263E-01    1.1741665591564894E+01   -2.3737017352682351E+01
N    1.9907188524960806E+00    1.2928728159649499E+01   -2.3885314796988833E+01
N   -2.2851212141771923E-01    1.4298351055528711E+01   -2.3786474193524722E+01
N    1.8996489841534741E+00    1.5494799285247566E+01   -2.3728972321066273E+01
N   -2.5303077147695191E-01    1.6784702405933029E+01   -2.3771183085979057E+01
N    1.9099272907365310E+00    1.8001599968450012E+01   -2.3617256234856431E+01
N   -2.8864193300402863E-01    1.9320692937586632E+01   -2.3715264625536744E+01
N    1.8779309549072676E+00    2.0576715020338341E+01   -2.3724407537728400E+01
B   -1.0383834021205981E+01    2.1803161120011797E+01   -2.4110534858364648E+01
B   -8.2577088838003103E+00    2.3051805853548473E+01   -2.4111584509720213E+01
B   -1.0426663060905176E+01    2.4298067886006773E+01   -2.4077375854860971E+01
B   -8.2633622529947441E+00    2.5529255322192185E+01   -2.3877705024167494E+01
B   -1.0395308136091485E+01    2.6766155899402499E+01   -2.3946313439676949E+01
B   -8.1933913045183111E+00    2.7980468801523077E+01   -2.3742389827170943E+01
B   -1.0430484007044527E+01    2.9301759411671714E+01   -2.3909104735143046E+01
B   -8.2272854361511776E+00    3.0517799313859772E+01   -2.3904769061786226E+01
B   -1.0399104853022893E+01    3.1816102725754838E+01   -2.4064472383240584E+01
B   -8.2521282589775673E+00    3.3058006994890043E+01   -2.3974377776096578E+01
B   -6.0787244140860572E+00    2.1805562839713783E+01   -2.4084030893340756E+01
B   -3.8574806298537236E+00    2.3108534544823907E+01   -2.4003313069289778E+01
B   -6.1011255718297495E+00    2.4303128474926663E+01   -2.4058528158645309E+01
B   -3.9145768988734790E+00    2.5560819551476719E+01   -2.3895715758068253E+01
B   -6.0722919503193511E+00    2.6797730480114726E+01   -2.3797732119531812E+01
B   -3.9046533039537858E+00    2.8088805902694890E+01   -2.3946323445694730E+01
B   -6.0701100085020903E+00    2.9254955478555683E+01   -2.3885380931487802E+01
B   -3.9160058333978651E+00    3.0647938755036858E+01   -2.4097477225183109E+01
B   -6.0699537963871570E+00    3.1825121208930948E+01   -2.4044484850505263E+01
B   -3.8936734257537435E+00    3.3163787833320193E+01   -2.4122046238358894E+01
B   -1.7207520105167520E+00    2.1834357826697545E+01   -2.3896005503496450E+01
B    4.4073859899133411E-01    2.3045014365147793E+01   -2.3778404349575990E+01
B   -1.7043300159597325E+00    2.4348173959299533E+01   -2.3878354321615280E+01
B    4.9714525347577615E-01    2.5572815188110855E+01   -2.3833927227364381E+01
B   -1.7373394399289772E+00    2.6841384170700479E+01   -2.3910327637613552E+01
B    4.2909461519392944E-01    2.8069908928883613E+01   -2.4112300724421335E+01
B   -1.7131971671219512E+00    2.9297596919151228E+01   -2.4157763120876758E+01
B    4.4644692553048332E-01    3.0620559714449492E+01   -2.4098769270709603E+01
B   -1.7504725537388985E+00    3.1860993626094452E+01   -2.4023635304205033E+01
B    4.3263059815377924E-01    3.3115249086694050E+01   -2.4071338199778353E+01
N   -8.9148518769198510E+00    2.1836793423430176E+01   -2.4134704610672497E+01
N   -6.8151030431074835E+00    2.3060934750236331E+01   -2.4186424485855476E+01
N   -8.9908348087618926E+00    2.4323936578214216E+01   -2.4101752419003162E+01
N   -6.8192594933664124E+00    2.5579757172867989E+01   -2.3906427967950567E+01
N   -8.9750671035147374E+00    2.6806977286355703E+01   -2.3761345497842363E+01
N   -6.7984337920643698E+00    2.8047576479713594E+01   -2.3641389374420857E+01
N   -8.9643783236180621E+00    2.9231982906464903E+01   -2.3779037165606375E+01
N   -6.7523722679134144E+00    3.0525781590618259E+01   -2.3995767062097112E+01
N   -8.9570963917687596E+00    3.1760749611763242E+01   -2.3940339923273346E+01
N   -6.8094519070124706E+00    3.3066319038770033E+01   -2.3914167922946064E+01
N   -4.6248755624209119E+00    2.1811244875372019E+01   -2.4040379449072635E+01
N   -2.4185632322906949E+00    2.3157550580823170E+01   -2.3975734337360837E+01
N   -4.6558711824499142E+00    2.4333816642303844E+01   -2.4073361322726800E+01
N   -2.4605197399327867E+00    2.5567918822778999E+01   -2.3759386997032671E+01
N   -4.6231173760741724E+00    2.6848366373407188E+01   -2.3909343786088918E+01
N   -2.4634295619941886E+00    2.8083102177362036E+01   -2.4071669480479613E+01
N   -4.6204085440285523E+00    2.9355564449606003E+01   -2.3979816074813169E+01
N   -2.4485587660116397E+00    3.0622598401286577E+01   -2.4105996721761016E+01
N   -4.6383561081471516E+00    3.1870577830446358E+01   -2.4092399367784036E+01
N   -2.4774368467484313E+00    3.3185740966930631E+01   -2.4073933840144772E+01
N   -3.1157294225622351E-01    2.1844890759317263E+01   -2.3727941694929651E+01
N    1.8600313762880241E+00    2.3098430010899047E+01   -2.3967989593323885E+01
N   -2.7038770422739850E-01    2.4321018502514875E+01   -2.3843541780178860E+01
N    1.9327007975851598E+00    2.5560379234525815E+01   -2.3825733872615789E+01
N   -2.5091140277928292E-01    2.6826050558884916E+01   -2.3957850360186033E+01
N    1.8803333603704544E+00    2.8085731532128531E+01   -2.4048078482754260E+01
N   -2.9974760858076616E-01    2.9355391511714355E+01   -2.4159918780839394E+01
N    1.8949462450331431E+00    3.0604628471805860E+01   -2.4184503713170905E+01
N   -3.5756435032571821E-01    3.1857705347099913E+01   -2.4066602291766642E+01
N    1.8712062254901007E+00    3.3133998002002208E+01   -2.4190557986007246E+01
B    2.6029160273908460E+00    9.2552878733951260E+00   -2.3875173327911977E+01
B    4.8068778490281998E+00    1.0479045997506487E+01   -2.3879400750794758E+01
B    2.6366984973489918E+00    1.1711761621650544E+01   -2.3738795684714898E+01
B    4.8201343437206754E+00    1.2941932079753604E+01   -2.3667217985336023E+01
B    2.6689109805985489E+00    1.4231313004844713E+01   -2.3769670946681305E+01
B    4.8256150224957874E+00    1.5531233535620338E+01   -2.3775106354502341E+01
B    2.6353192552448559E+00    1.6777207868401668E+01   -2.3776375817165210E+01
B    4.8138069448624696E+00    1.8021920518177943E+01   -2.3876181464254163E+01
B    2.6037896422619173E+00    1.9279654593725990E+01   -2.3658139541711886E+01
B    4.8491135286691520E+00    2.0576262788935864E+01   -2.3863104433159407E+01
B    6.9517149184007598E+00    9.2824714899952081E+00   -2.4267610276661433E+01
B    9.1720994699108314E+00    1.0498655363351620E+01   -2.4216372006843674E+01
B    6.9936794105658135E+00    1.1733100107014158E+01   -2.4117176752406525E+01
B    9.0352404623001910E+00    1.3030529507694181E+01   -2.4107440261528946E+01
B    6.9341626988003000E+00    1.4176506885640357E+01   -2.3774880354929369E+01
B    9.1151232829207647E+00    1.5539589551704880E+01   -2.3920305783996401E+01
B    6.9260505325731314E+00    1.6733978062949436E+01   -2.3766921947561016E+01
B    9.1851966834886021E+00    1.8003733493142260E+01   -2.4019538872226160E+01
B    6.9722933974184302E+00    1.9247203400963581E+01   -2.3964625610166841E+01
B    9.1415269132181276E+00    2.0564761801469562E+01   -2.4180877972350558E+01
B    1.1295682303215434E+01    9.2069617531021191E+00   -2.4313062166280766E+01
B    1.3422732069130568E+01    1.0455496355388549E+01   -2.4295992529671036E+01
B    1.1308060492276706E+01    1.1823394970525452E+01   -2.4318289558047002E+01
B    1.3494144529477522E+01    1.2971428756472235E+01   -2.4312172384023182E+01
B    1.1230525760119784E+01    1.4264610451128091E+01   -2.4167027483445469E+01
B    1.3513666462262501E+01    1.5536513127690153E+01   -2.4267335119270452E+01
B    1.1326157067507264E+01    1.6681556110104616E+01   -2.4203088941260173E+01
B    1.3486800329937470E+01    1.7974372140976641E+01   -2.4443626362667068E+01
B    1.1336068836010089E+01    1.9280297216834168E+01   -2.4392698665542547E+01
B    1.3519731766948295E+01    2.0513801825232257E+01   -2.4341227371239558E+01
N    4.0626784762761279E+00    9.2278925427723131E+00   -2.3909937618813849E+01
N    6.2082501349824941E+00    1.0521909882293713E+01   -2.4137766377571019E+01
N    4.0662084323449195E+00    1.1715754905991034E+01   -2.3666575155667744E+01
N    6.2600434609972071E+00    1.2924511331856564E+01   -2.3790105957406205E+01
N    4.1445453234116423E+00    1.4234235790508420E+01   -2.3655776148792071E+01
N    6.2495921676270401E+00    1.5486391958273524E+01   -2.3642238002135120E+01
N    4.0695505962557208E+00    1.6771975604829866E+01   -2.3843680156272072E+01
N    6.2450520404126850E+00    1.7983611056044712E+01   -2.3786436797864759E+01
N    4.0791675886222354E+00    1.9303534546000741E+01   -2.3774661666331511E+01
N    6.2876826666119250E+00    2.0598901964972086E+01   -2.3961625483919764E+01
N    8.4239616538043691E+00    9.2544028711866861E+00   -2.4362721837027742E+01
N    1.0650752526422981E+01    1.0502653955912821E+01   -2.4280079625262580E+01
N    8.4471420375798374E+00    1.1741498171231095E+01   -2.4250845984820980E+01
N    1.0543292887486889E+01    1.3034997793523866E+01   -2.4125606760016058E+01
N    8.3418680836749068E+00    1.4262677367447409E+01   -2.3908897026545567E+01
N    1.0581216526013074E+01    1.5509058846808262E+01   -2.3998749507435768E+01
N    8.4081694517844472E+00    1.6811006396074767E+01   -2.3819655673028127E+01
N    1.0607549713680887E+01    1.7963540009851414E+01   -2.4214752927806455E+01
N    8.4473211932521615E+00    1.9289896922781995E+01   -2.4066829905026982E+01
N    1.0602192826192409E+01    2.0559044167017607E+01   -2.4427343724051077E+01
N    1.2712562953980196E+01    9.1886508437219554E+00   -2.4253929148405017E+01
N    1.4920350466445232E+01    1.0459229831859515E+01   -2.4239325529661276E+01
N    1.2717228907831933E+01    1.1743799350101293E+01   -2.4279876505571906E+01
N    1.4955069252515274E+01    1.2981988941066943E+01   -2.4160415482745769E+01
N    1.2742048834831522E+01    1.4194801471209674E+01   -2.4229660949485101E+01
N    1.4956140970693411E+01    1.5472378592512747E+01   -2.4225373867666271E+01
N    1.2721380490979710E+01    1.6723075422420408E+01   -2.4416266442966275E+01
N    1.4947692366826844E+01    1.8083667850557966E+01   -2.4471217103244310E+01
N    1.2783617392486635E+01    1.9252220477955927E+01   -2.4512957859956092E+01
N    1.4986353825463738E+01    2.0491232533630580E+01   -2.4178616666743711E+01
B    2.6106462060570235E+00    2.1815445035543469E+01   -2.3897479194429650E+01
B    4.7687423973897136E+00    2.3055005793104314E+01   -2.4017540628561122E+01
B    2.6498543743394940E+00    2.4285467591705114E+01   -2.3904025700516886E+01
B    4.8072099789682117E+00    2.5607311855605015E+01   -2.4055743688799332E+01
B    2.6432003431090192E+00    2.6787299262175765E+01   -2.4012104124502571E+01
B    4.7817280968775497E+00    2.8106944912884430E+01   -2.4221412991746107E+01
B    2.6286662247061932E+00    2.9336207328828696E+01   -2.4216757841097841E+01
B    4.7580403115024978E+00    3.0604050136798104E+01   -2.4309688986812951E+01
B    2.5792425290963381E+00    3.1848747972290809E+01   -2.4290698647176097E+01
B    4.7599797964839929E+00    3.3101464790964940E+01   -2.4159187385245616E+01
B    6.9891137799182896E+00    2.1858304768630273E+01   -2.3982858807813066E+01
B    9.1503904589622671E+00    2.3060765932997835E+01   -2.4051745473962608E+01
B    6.9707488326740537E+00    2.4330423712518161E+01   -2.4034072071085049E+01
B    9.1303164614051529E+00    2.5567947333699976E+01   -2.4128049854402992E+01
B    6.9796675694535084E+00    2.6880151893236544E+01   -2.4181405848637649E+01
B    9.1114123339880351E+00    2.8100135242950468E+01   -2.4215895408423229E+01
B    6.9281514449988206E+00    2.9379781475095815E+01   -2.4289185741059271E+01
B    9.1477691460428598E+00    3.0603267840780546E+01   -2.4175664100038869E+01
B    6.9536704844545838E+00    3.1876966532654521E+01   -2.4334343204849862E+01
B    9.1270802838898177E+00    3.3055164172989151E+01   -2.4228908533279299E+01
B    1.1320143523489696E+01    2.1861725759386868E+01   -2.4342698021685507E+01
B    1.3472082460589695E+01    2.3024428816639233E+01   -2.4242265566289714E+01
B    1.1316553982729134E+01    2.4310559805471016E+01   -2.4146113663470441E+01
B    1.3519749701423443E+01    2.5509213899792705E+01   -2.4132923878731816E+01
B    1.1322058416006495E+01    2.6821750058352766E+01   -2.4114845029204467E+01
B    1.3522869541487072E+01    2.7992057660318057E+01   -2.4004015212375272E+01
B    1.1341385653908684E+01    2.9325034348664381E+01   -2.4165625170530134E+01
B    1.3469875751981881E+01    3.0545917118389422E+01   -2.4057703537078943E+01
B    1.1333080520482557E+01    3.1803341289319139E+01   -2.4196227300256478E+01
B    1.3539994891148364E+01    3.3048776797274492E+01   -2.4245237272385896E+01
N    4.0706853947166497E+00    2.1763458436933611E+01   -2.3935631238140758E+01
N    6.2354516275811473E+00    2.3085617386655695E+01   -2.4021628916873610E+01
N    4.0945278774533929E+00    2.4312126377890554E+01   -2.4005232588759878E+01
N    6.2347088359988261E+00    2.5583639967198412E+01   -2.4150699710092532E+01
N    4.0734624430331206E+00    2.6847891127266180E+01   -2.3989277431095282E+01
N    6.2418160369731792E+00    2.8119318148935005E+01   -2.4392435254106200E+01
N    4.0865057451629054E+00    2.9334763227799179E+01   -2.4214006613673611E+01
N    6.1940197423105801E+00    3.0607746865660939E+01   -2.4344436337020355E+01
N    4.0419421596719145E+00    3.1846604594360034E+01   -2.4201265501059350E+01
N    6.2429329361753672E+00    3.3118526472375976E+01   -2.4288910587359062E+01
N    8.4599691247238127E+00    2.1827302663949407E+01   -2.4071166583170545E+01
N    1.0568132692605712E+01    2.3080594826329072E+01   -2.4140894743526388E+01
N    8.4517118243362379E+00    2.4334386257337211E+01   -2.4006706080144578E+01
N    1.0576054826413367E+01    2.5576220036968497E+01   -2.4114350479256860E+01
N    8.3962025732104486E+00    2.6817880132406177E+01   -2.4291241928418124E+01
N    1.0593386071349835E+01    2.8106188653413177E+01   -2.4185733501122208E+01
N    8.3851073025809875E+00    2.9352770539446414E+01   -2.4229301193225133E+01
N    1.0619323327522890E+01    3.0577296368730050E+01   -2.4174073951920175E+01
N    8.3958382580554236E+00    3.1827320031263639E+01   -2.4261981271049123E+01
N    1.0613306441492139E+01    3.3047597658517347E+01   -2.4208608934160647E+01
N    1.2771036459831135E+01    2.1790390466684432E+01   -2.4376274083637536E+01
N    1.4947933076984684E+01    2.2994674263556472E+01   -2.4070698415480212E+01
N    1.2747288457602028E+01    2.4252932704269998E+01   -2.4183849084507756E+01
N    1.4957105572678135E+01    2.5525165441937506E+01   -2.4112992116415523E+01
N    1.2853080504682243E+01    2.6718032458118373E+01   -2.4036657811117326E+01
N    1.4926288123622554E+01    2.7978457054737163E+01   -2.3850919446535038E+01
N    1.2801812984860106E+01    2.9268525222787783E+01   -2.3998003652430157E+01
N    1.4912857973392493E+01    3.0529655626834941E+01   -2.4066720539492977E+01
N    1.2816592993594647E+01    3.1807897676585096E+01   -2.4276045009027332E+01
N    1.4915850490078713E+01    3.3090957978216444E+01   -2.4102809028946034E+01
O    4.7597469041377842E+01    1.5475829635991420E+01   -8.2349233298767253E+00
H    4.7526099234127479E+01    1.4472101635327601E+01   -8.0720128567534744E+00
H    4.6805284915454195E+01    1.5879398024430555E+01   -7.7679744831174595E+00
O   -1.5409888536659448E+01    1.2518046673874332E+01   -1.6579595396426875E+01
H   -1.5945765446040145E+01    1.3282608478861613E+01   -1.6911026284482272E+01
H   -1.5742093596977174E+01    1.2447221985918977E+01   -1.5662346361413782E+01
O    2.3115205890490227E+01    5.1500988502221269E+01   -1.3415280119612701E+01
H    2.2787683230658647E+01    5.1192178089138920E+01   -1.4264225018261106E+01
H    2.2363137833105355E+01    5.1723768084492065E+01   -1.2844448422081717E+01
O    7.5683523322990553E+01    5.9397761675546725E+01   -1.5827791610704187E+01
H    7.4723181159513771E+01    5.9117099660966637E+01   -1.5837584664582636E+01
H    7.6100866537542231E+01    5.8654270503670944E+01   -1.5229003004356132E+01
O    4.0969824836994732E+01    5.5678324635884366E+01   -1.9053533436085416E+01
H    4.0867500051063104E+01    5.6491793218746622E+01   -1.9593355392349270E+01
H    4.1449714965574657E+01    5.4993026335171059E+01   -1.9599305232844625E+01
O    3.6243505442443848E+01    5.8018223873574271E+01   -1.1588641367854207E+01
H    3.6651888193587865E+01    5.7426067104752107E+01   -1.0876745787095501E+01
H    3.6507452260969607E+01    5.7564003193277756E+01   -1.2416860545661224E+01
O    1.1317670074356754E+02    7.2997072885223659E+01   -1.5940000193425217E+01
H    1.1313194681702576E+02    7.3618682481215515E+01   -1.6696195844469937E+01
H    1.1400060384297083E+02    7.2614592076983371E+01   -1.5703625937709889E+01
O    2.6078629803000261E+01    9.0835035893708579E+01   -1.5754988771851931E+01
H    2.7066592745056667E+01    9.0880368239121026E+01   -1.5760475672750600E+01
H    2.5599729795526756E+01    9.0832157859425052E+01   -1.4830907134319546E+01
O    2.4379210015151543E+01    6.4363188016378444E+01   -2.0971952475862320E+01
H    2.3528812820738064E+01    6.3956345425544640E+01   -2.1351109905177037E+01
H    2.5182809322606897E+01    6.3886438336611626E+01   -2.1161179858002804E+01
O    1.7531492142613647E+01    6.0826209211045615E+01   -1.5368486864880740E+01
H    1.7010524201962529E+01    6.0345463744375699E+01   -1.4698489053024080E+01
H    1.7215303620811088E+01    6.0442320450437101E+01   -1.6234612533598224E+01
O    6.9450037641829738E+01    3.1501692610643577E+01   -1.3042831681474251E+01
H    6.9035611755464572E+01    3.1289124812053860E+01   -1.2185292296290449E+01
H    7.0220922846517155E+01    3.2032820152838788E+01   -1.2916724017665020E+01
O    6.5545451443076090E+01    1.1877123173545820E+02   -2.1235407115478075E+01
H    6.4863516193187976E+01    1.1806099997163365E+02   -2.1224764481635699E+01
H    6.6391064886318944E+01    1.1826505581983616E+02   -2.1386431985308896E+01
O    1.1580840411078940E+02    4.1619509076963475E+01   -2.1047537379249583E+01
H    1.1519672871054273E+02    4.2073602305638374E+01   -2.0468348271641798E+01
H    1.1614233611453267E+02    4.0739274539813529E+01   -2.0601183084907891E+01
O    7.7927568041511790E+01    2.8828481642046384E+01   -7.3543284201518810E+00
H    7.7582789981153979E+01    2.8146931612544652E+01   -6.7241941607266078E+00
H    7.8001377962244305E+01    2.8285224237544163E+01   -8.2108250455333884E+00
O    5.5849947918309567E+01    3.1691125566402569E+01   -7.8807949536129849E+00
H    5.6411269266937936E+01    3.2460362553490370E+01   -8.1062158072250909E+00
H    5.5777735797420831E+01    3.1240269034154558E+01   -8.7826183317945805E+00
O    6.3993650593904903E+01    1.0309672354640409E+02   -2.0606213981903949E+01
H    6.3326944429349354E+01    1.0365347326298675E+02   -2.1126274295539080E+01
H    6.4230151453831965E+01    1.0360997378257609E+02   -1.9846320602302413E+01
O    5.6442032234813289E-01    1.2875176877372138E+02   -1.3751944358276752E+01
H    1.2919884862367288E+00    1.2894257904629694E+02   -1.4421254332990250E+01
H   -2.8418688756589139E-01    1.2885734131712204E+02   -1.4354244337596446E+01
O    1.4227526320794759E+01    7.8912741063522077E+01   -1.3110616884260093E+01
H    1.5147447295654546E+01    7.8735423613601526E+01   -1.3445087099708337E+01
H    1.3781608943931101E+01    7.9387656073880635E+01   -1.3909640166225408E+01
O    4.1167741789166215E+01    6.3491262097127731E+01   -1.1627747252049474E+01