 # Version information for this restart file 
 # current date 2020-01-25 15:13:31.569
 # current working dir /scratch/snx3000/gtocci/gtocci/MEMBRANES/AIMD_US_IONS_BN/aimd_us_iodide/us_22
 # Program compiled at                              Fri Nov 22 15:19:42 CET 2019
 # Program compiled on                                                  daint102
 # Program compiled for                                   CRAY_XC50-gfortran_gpu
 # Source code revision number                                       git:a698b45
 &GLOBAL
   PRINT_LEVEL  LOW
   PROJECT_NAME BNS
   RUN_TYPE  MD
   WALLTIME 86400
 &END GLOBAL
 &MOTION
   &MD
     ENSEMBLE  NVT
     STEPS  2000
     TIMESTEP     9.9999999999999989E-01
     STEP_START_VAL  41086
     TIME_START_VAL     4.1085999999990541E+04
     ECONS_START_VAL    -8.4828362325407670E+03
     TEMPERATURE     3.0000000000000000E+02
     TEMP_KIND  T
     &BAROSTAT
       PRESSURE     1.0000000000000000E+00
       TIMECON     9.9999999999999986E+01
       VIRIAL  Z
     &END BAROSTAT
     &THERMOSTAT
       TYPE  NOSE
       REGION  GLOBAL
       &NOSE
         LENGTH  4
         TIMECON     9.9999999999999986E+01
         MTS  2
         &COORD
               3.3771615156559193E-01    8.0559185640582220E-01    2.3665349027074377E+01    4.4278460605565390E-01
         &END COORD
         &VELOCITY
              -6.2083686219796139E-07    5.2627002282748146E-04   -4.5162122121660900E-05   -2.1171474751750384E-04
         &END VELOCITY
         &MASS
               7.0145132684705392E+07    1.6237299232570693E+04    1.6237299232570693E+04    1.6237299232570693E+04
         &END MASS
         &FORCE
              -8.4601414642219227E-11   -5.6844919921221408E-08    2.1845012307673279E-07   -5.6470396575573257E-08
         &END FORCE
       &END NOSE
     &END THERMOSTAT
     &AVERAGES  T
       &RESTART_AVERAGES
         ITIMES_START  1
         AVECPU     2.3821692021988827E+01
         AVEHUGONIOT     0.0000000000000000E+00
         AVETEMP_BARO     0.0000000000000000E+00
         AVEPOT    -8.4857564052557937E+03
         AVEKIN     2.0528085889430967E+00
         AVETEMP     3.0010412471557925E+02
         AVEKIN_QM     0.0000000000000000E+00
         AVETEMP_QM     0.0000000000000000E+00
         AVEVOL     2.2086622704880941E+05
         AVECELL_A     4.9287836997924984E+01
         AVECELL_B     4.7426456757032106E+01
         AVECELL_C     9.4486306644279694E+01
         AVEALPHA     9.0000000000000000E+01
         AVEBETA     9.0000000000000000E+01
         AVEGAMMA     9.0000000000000000E+01
         AVE_ECONS     6.2222380728933580E+01
         AVE_PRESS     0.0000000000000000E+00
         AVE_PXX     0.0000000000000000E+00
       &END RESTART_AVERAGES
     &END AVERAGES
     &PRINT
       &TEMP_KIND  SILENT
       &END TEMP_KIND
     &END PRINT
   &END MD
   &FREE_ENERGY
     &METADYN
       MIN_DISP    -1.0000000000000000E+00
       OLD_HILL_NUMBER  0
       OLD_HILL_STEP  0
       DO_HILLS  F
       STEP_START_VAL  41086
       NHILLS_START_VAL  0
       &METAVAR
         SCALE     1.0000000000000000E+00
         COLVAR  1
       &END METAVAR
       &PRINT
         &COLVAR  SILENT
           COMMON_ITERATION_LEVELS  3
           &EACH
             MD  1
           &END EACH
         &END COLVAR
       &END PRINT
     &END METADYN
   &END FREE_ENERGY
   &CONSTRAINT
     &COLLECTIVE
       COLVAR  1
       INTERMOLECULAR  T
       &RESTRAINT
         K     4.4625385281452931E-04
       &END RESTRAINT
     &END COLLECTIVE
     &COLVAR_RESTART
           2.1009321205694292E+01
     &END COLVAR_RESTART
   &END CONSTRAINT
   &PRINT
     &TRAJECTORY  SILENT
       &EACH
         MD  1
       &END EACH
     &END TRAJECTORY
     &VELOCITIES  SILENT
       &EACH
         MD  1
       &END EACH
     &END VELOCITIES
     &FORCES  SILENT
       UNIT eV*angstrom^-1
       &EACH
         MD  1
       &END EACH
     &END FORCES
     &RESTART  SILENT
       &EACH
         MD  1
       &END EACH
     &END RESTART
     &RESTART_HISTORY  SILENT
       &EACH
         MD  100
       &END EACH
     &END RESTART_HISTORY
   &END PRINT
 &END MOTION
 &FORCE_EVAL
   METHOD  QS
   &DFT
     BASIS_SET_FILE_NAME /users/gtocci/scratch_daint_3000/data_cp2k//BASIS_MOLOPT
     POTENTIAL_FILE_NAME /users/gtocci/scratch_daint_3000/data_cp2k//GTH_POTENTIALS
     WFN_RESTART_FILE_NAME ./BNS-RESTART.wfn
     CHARGE  -1
     &SCF
       MAX_SCF  10
       EPS_SCF     9.9999999999999995E-07
       SCF_GUESS  RESTART
       &OT  T
         MINIMIZER  DIIS
         PRECONDITIONER  FULL_KINETIC
       &END OT
       &OUTER_SCF  T
         EPS_SCF     9.9999999999999995E-07
         MAX_SCF  30
       &END OUTER_SCF
       &PRINT
         &RESTART  SILENT
           ADD_LAST  NUMERIC
           &EACH
             QS_SCF  50
           &END EACH
         &END RESTART
       &END PRINT
     &END SCF
     &QS
       MAP_CONSISTENT  T
       EXTRAPOLATION  ASPC
       EXTRAPOLATION_ORDER  4
     &END QS
     &MGRID
       NGRIDS  5
       CUTOFF     4.6000000000000000E+02
     &END MGRID
     &XC
       DENSITY_CUTOFF     1.0000000000000000E-10
       GRADIENT_CUTOFF     1.0000000000000000E-10
       TAU_CUTOFF     1.0000000000000000E-10
       &XC_GRID
         XC_DERIV  SPLINE2_SMOOTH
       &END XC_GRID
       &XC_FUNCTIONAL  NO_SHORTCUT
         &LIBXC  T
           FUNCTIONAL XC_GGA_X_OPTB88_VDW
         &END LIBXC
         &VWN  T
         &END VWN
       &END XC_FUNCTIONAL
       &VDW_POTENTIAL
         POTENTIAL_TYPE  NON_LOCAL
         &NON_LOCAL
           TYPE  DRSLL
           VERBOSE_OUTPUT  T
           KERNEL_FILE_NAME /users/gtocci/scratch_daint_3000/data_cp2k//vdW_kernel_table.dat
           CUTOFF     3.6000000000000000E+02
         &END NON_LOCAL
       &END VDW_POTENTIAL
     &END XC
     &REAL_TIME_PROPAGATION
       INITIAL_WFN  SCF_WFN
     &END REAL_TIME_PROPAGATION
     &PRINT
       &MULLIKEN  SILENT
         FILENAME =BNS.mulliken
       &END MULLIKEN
     &END PRINT
   &END DFT
   &SUBSYS
     &CELL
       A     2.6082000000000019E+01    0.0000000000000000E+00    0.0000000000000000E+00
       B     0.0000000000000000E+00    2.5097000000000001E+01    0.0000000000000000E+00
       C     0.0000000000000000E+00    0.0000000000000000E+00    5.0000000000000028E+01
       MULTIPLE_UNIT_CELL  1 1 1
     &END CELL
     &COORD
B   -9.2661763903951400E+00    1.3103920647339482E+01   -2.6622858719475396E+01
B   -7.0485759618399459E+00    1.4328644972522060E+01   -2.6830216637297141E+01
B   -9.2439331097626933E+00    1.5629123804276770E+01   -2.6726160306730712E+01
B   -7.0656568648471314E+00    1.6874957755726335E+01   -2.6818069584608960E+01
B   -9.1530482885677422E+00    1.8122970670434775E+01   -2.6688855762062744E+01
B   -7.0081128090532125E+00    1.9335834942820462E+01   -2.6777198605032563E+01
B   -9.1751792642240737E+00    2.0601304347520401E+01   -2.6475094150014744E+01
B   -7.0811340659033029E+00    2.1851293420843813E+01   -2.6554945899185196E+01
B   -9.1678523640615310E+00    2.3110639201106601E+01   -2.6520017232499068E+01
B   -7.0470972290032181E+00    2.4395908104495057E+01   -2.6530353961963748E+01
B   -4.8772613447327018E+00    1.3114352674041633E+01   -2.6753860664504369E+01
B   -2.6833950226676011E+00    1.4341014315238406E+01   -2.6639482351147425E+01
B   -4.8646446844258433E+00    1.5637415159246832E+01   -2.6755916387158454E+01
B   -2.7265978876271517E+00    1.6835040111828508E+01   -2.6873394178212251E+01
B   -4.8944584144069534E+00    1.8143994240962822E+01   -2.6859603857498140E+01
B   -2.7187834206455563E+00    1.9371560678156001E+01   -2.6977766641380352E+01
B   -4.8898152272914590E+00    2.0664897371467752E+01   -2.6878197532575435E+01
B   -2.7044061248921620E+00    2.1867647049954314E+01   -2.6973661597430684E+01
B   -4.8591649923240388E+00    2.3130495455808422E+01   -2.6640144997605315E+01
B   -2.7081858520552800E+00    2.4360735393253243E+01   -2.6895139067908858E+01
B   -5.5558059869889087E-01    1.3106729427888625E+01   -2.6525655522741889E+01
B    1.5896676133079504E+00    1.4330320908684701E+01   -2.6641944215297315E+01
B   -5.3418504688733937E-01    1.5556905213357958E+01   -2.6835965509232693E+01
B    1.6707973687028406E+00    1.6828677061470163E+01   -2.6826569919561958E+01
B   -5.4960620580610886E-01    1.8125925751781047E+01   -2.6908648585932781E+01
B    1.6221864556292249E+00    1.9343288284987548E+01   -2.6772730507948594E+01
B   -5.2268908054491336E-01    2.0604996265021725E+01   -2.7096501999232288E+01
B    1.6106963844698163E+00    2.1870489471988424E+01   -2.6812654107303999E+01
B   -4.9332581926207997E-01    2.3124375043650687E+01   -2.7039403759591298E+01
B    1.6261371078915301E+00    2.4384838920514486E+01   -2.6727575138693954E+01
N   -7.7950206978602541E+00    1.3062546186689447E+01   -2.6796549234543868E+01
N   -5.5643116867147917E+00    1.4379781448621316E+01   -2.6880266862410593E+01
N   -7.7967904108417585E+00    1.5593016832115500E+01   -2.6891363167114378E+01
N   -5.6168987944487538E+00    1.6874611942254663E+01   -2.6713349628016669E+01
N   -7.7632891933165071E+00    1.8108299676843828E+01   -2.6788400506750197E+01
N   -5.5775482165812846E+00    1.9355287996739548E+01   -2.6856891913529616E+01
N   -7.7312490148188671E+00    2.0636419377656630E+01   -2.6561014269426305E+01
N   -5.6172247749795634E+00    2.1897573318513807E+01   -2.6674440657672573E+01
N   -7.7479973617317519E+00    2.3125690130244841E+01   -2.6459353639265949E+01
N   -5.5631001950499686E+00    2.4433984125082290E+01   -2.6571022523699035E+01
N   -3.4380743422609972E+00    1.3061148890715485E+01   -2.6455842071362412E+01
N   -1.2768654308862570E+00    1.4383458679450090E+01   -2.6622484970739674E+01
N   -3.4406009976295335E+00    1.5584026131081552E+01   -2.6794099441491479E+01
N   -1.2474761381064867E+00    1.6845582365637966E+01   -2.6773923682082906E+01
N   -3.4301647745702453E+00    1.8083365431722694E+01   -2.6876758319177284E+01
N   -1.2889268440996955E+00    1.9369349516186297E+01   -2.7007629704480824E+01
N   -3.4687655678011007E+00    2.0582859348946343E+01   -2.7015696371966893E+01
N   -1.2108882331784871E+00    2.1827315426671802E+01   -2.7140276892008711E+01
N   -3.4104310445280732E+00    2.3131303043447868E+01   -2.6789755928021378E+01
N   -1.2334240630957014E+00    2.4377817049700049E+01   -2.7092018677497762E+01
N    8.8304026352916110E-01    1.3052941227972649E+01   -2.6529851941737078E+01
N    3.0309707377992692E+00    1.4331189133468653E+01   -2.6394326284213427E+01
N    9.2118875147872914E-01    1.5579943499954082E+01   -2.6871270846968983E+01
N    3.1094397415001960E+00    1.6866991228236351E+01   -2.6763350882899516E+01
N    8.8700543020645661E-01    1.8092629449380439E+01   -2.6852403267587295E+01
N    3.0770757531595438E+00    1.9369813215228220E+01   -2.6614063005236847E+01
N    9.2278849335497193E-01    2.0607940497645213E+01   -2.6989207665737176E+01
N    3.0912831938003826E+00    2.1930211345401290E+01   -2.6823258877851554E+01
N    9.1114190422462094E-01    2.3110783541903366E+01   -2.6805399814389023E+01
N    3.0714341549048374E+00    2.4428935606758284E+01   -2.6751712238443332E+01
B   -9.1638012333503109E+00    2.5655308633747765E+01   -2.6554086863545312E+01
B   -7.0552455402204020E+00    2.6895026234853475E+01   -2.6838190317130934E+01
B   -9.2563068350075870E+00    2.8179976369966397E+01   -2.6693901245793676E+01
B   -7.1394808680102191E+00    2.9417505849527171E+01   -2.6899823207864202E+01
B   -9.3105888108388957E+00    3.0624060972865603E+01   -2.6792379470890054E+01
B   -7.0927727885211631E+00    3.1853150026534752E+01   -2.6691855573723792E+01
B   -9.2141026547235718E+00    3.3140589900824153E+01   -2.6594855712622245E+01
B   -7.1034270961860857E+00    3.4374279079077290E+01   -2.6618188287914990E+01
B   -9.2336313583659404E+00    3.5649190603873691E+01   -2.6406014272640544E+01
B   -7.0220506858368861E+00    3.6915086750523585E+01   -2.6665369817939560E+01
B   -4.8706076961340230E+00    2.5662235113939907E+01   -2.6862013728675155E+01
B   -2.7470244012047633E+00    2.6887182275386440E+01   -2.7003333545007656E+01
B   -4.9187143346557223E+00    2.8162963567269003E+01   -2.6982259139807173E+01
B   -2.7347787183472874E+00    2.9390354629775036E+01   -2.6887572884489312E+01
B   -4.8690336043212756E+00    3.0702539321028965E+01   -2.6731015572211238E+01
B   -2.7063439481473002E+00    3.1853951021934368E+01   -2.6514857542663805E+01
B   -4.8576010063930593E+00    3.3136573441516603E+01   -2.6580508979289458E+01
B   -2.7089006714509916E+00    3.4358570330334906E+01   -2.6357431063513246E+01
B   -4.8797132527748710E+00    3.5590198412394528E+01   -2.6629411937911136E+01
B   -2.7465693657813843E+00    3.6908104221714588E+01   -2.6349863478417507E+01
B   -5.3964006218207561E-01    2.5642481005951623E+01   -2.6958531589844497E+01
B    1.6342237500788852E+00    2.6915977577759794E+01   -2.6764011054416038E+01
B   -4.9718685105087601E-01    2.8145461810135469E+01   -2.6778287379100160E+01
B    1.6776871900143611E+00    2.9390878359718545E+01   -2.6670691329825388E+01
B   -4.9664471444277025E-01    3.0649463798479331E+01   -2.6641194939768642E+01
B    1.6409025841072908E+00    3.1899219438990780E+01   -2.6483710326324541E+01
B   -5.2021000076685275E-01    3.3172570885589842E+01   -2.6304245855603657E+01
B    1.6030555416682331E+00    3.4366617876690512E+01   -2.6376959579318118E+01
B   -5.7408111821376395E-01    3.5665488835984618E+01   -2.6317133027541889E+01
B    1.5504697763235622E+00    3.6875881313183761E+01   -2.6415294322515336E+01
N   -7.7136514827771023E+00    2.5660858622255240E+01   -2.6656538359909550E+01
N   -5.5915429856916647E+00    2.6925159857203905E+01   -2.7045727683755711E+01
N   -7.8400321743944641E+00    2.8156201196865528E+01   -2.6817956204759348E+01
N   -5.6681358997644242E+00    2.9449879182802626E+01   -2.6927762540019586E+01
N   -7.8821647315082668E+00    3.0637517820108965E+01   -2.6911588099124998E+01
N   -5.6394793218973049E+00    3.1874259850384593E+01   -2.6641270697954386E+01
N   -7.8104643572918846E+00    3.3137150884569877E+01   -2.6646047535337086E+01
N   -5.6135906125146722E+00    3.4392926622644367E+01   -2.6562701258287216E+01
N   -7.7947872559990854E+00    3.5638365165978492E+01   -2.6517940165052249E+01
N   -5.6063151020606528E+00    3.6866674109335420E+01   -2.6799073591154531E+01
N   -3.4679779429897657E+00    2.5607289715936414E+01   -2.6922045001208911E+01
N   -1.2460307481929440E+00    2.6907110994712227E+01   -2.6851430124058830E+01
N   -3.4635587091649742E+00    2.8146972759761148E+01   -2.7104241519498309E+01
N   -1.2418105951210499E+00    2.9399168067001877E+01   -2.6738054343607175E+01
N   -3.4229873329584173E+00    3.0610981694668425E+01   -2.6660412260784771E+01
N   -1.2343252837229655E+00    3.1876427125715502E+01   -2.6381316476165075E+01
N   -3.4400640911260285E+00    3.3138511140962372E+01   -2.6592249038350101E+01
N   -1.2568600220424300E+00    3.4395390673298586E+01   -2.6387764964418469E+01
N   -3.4189204185724988E+00    3.5625253553551246E+01   -2.6424803347341388E+01
N   -1.2690451562471492E+00    3.6930787184552280E+01   -2.6381371748312962E+01
N    9.3868449055353409E-01    2.5650223409700221E+01   -2.6908452102179428E+01
N    3.0995418310698026E+00    2.6953779609628224E+01   -2.6664771233903618E+01
N    9.1517062353932843E-01    2.8201353470899374E+01   -2.6716129863744925E+01
N    3.0844066404231589E+00    2.9440463125785630E+01   -2.6588062744142235E+01
N    9.4398958956271706E-01    3.0661492434414175E+01   -2.6617536061138370E+01
N    3.0783023775617862E+00    3.1920927257224580E+01   -2.6397395717324702E+01
N    8.8376676197785220E-01    3.3117209268902435E+01   -2.6463871826654550E+01
N    3.0836073152871157E+00    3.4402012206158169E+01   -2.6397648961734387E+01
N    8.5456808144729235E-01    3.5635671723085409E+01   -2.6336369177022284E+01
N    3.0587308458175815E+00    3.6912988499447003E+01   -2.6416322131362737E+01
B    3.7931938684222128E+00    1.3063594629748502E+01   -2.6503953233211750E+01
B    5.9239861738619171E+00    1.4396258904263926E+01   -2.6255246899437289E+01
B    3.7609201474436178E+00    1.5587630224318257E+01   -2.6526296570218918E+01
B    5.9459472635163673E+00    1.6857942119799056E+01   -2.6279045833965068E+01
B    3.8350545958251527E+00    1.8135300973166760E+01   -2.6637209987895904E+01
B    5.9181160314600287E+00    1.9452328705595225E+01   -2.6402349662596375E+01
B    3.8454330836877260E+00    2.0693848971030409E+01   -2.6598878341078962E+01
B    5.9772156825319804E+00    2.1945666024695033E+01   -2.6442846112190342E+01
B    3.8232621037060124E+00    2.3161541158787692E+01   -2.6702236258220996E+01
B    6.0265813332500349E+00    2.4420944291368361E+01   -2.6411446511848681E+01
B    8.1623003834466044E+00    1.3158587775370670E+01   -2.6219690985444391E+01
B    1.0330817845998137E+01    1.4365320379991232E+01   -2.6185179473709592E+01
B    8.1274956352190877E+00    1.5644491817755764E+01   -2.6014930511645986E+01
B    1.0364520252640430E+01    1.6876189551234138E+01   -2.6131166545708673E+01
B    8.1055790750951324E+00    1.8143846865474298E+01   -2.6109447073634428E+01
B    1.0355625503622580E+01    1.9376614544029675E+01   -2.6268452253953715E+01
B    8.1465618692165496E+00    2.0639967172605093E+01   -2.6330545874169601E+01
B    1.0310161778134034E+01    2.1856571248025702E+01   -2.6294707194575924E+01
B    8.1620765703212008E+00    2.3181854790344442E+01   -2.6344897645029004E+01
B    1.0346987328679168E+01    2.4359390263448418E+01   -2.6221870429180797E+01
B    1.2499547810709601E+01    1.3139380846850749E+01   -2.6401303047792780E+01
B    1.4709084904105930E+01    1.4380157561297771E+01   -2.6409683908045640E+01
B    1.2510479414794700E+01    1.5607505661762158E+01   -2.6330097530321460E+01
B    1.4708799188706493E+01    1.6922358519227739E+01   -2.6466698566284400E+01
B    1.2532430738034430E+01    1.8142726078287506E+01   -2.6341374047048781E+01
B    1.4749009068876051E+01    1.9436636119920582E+01   -2.6481476495544605E+01
B    1.2511367680695573E+01    2.0638893886729743E+01   -2.6293067632458939E+01
B    1.4641034087994973E+01    2.1891991227501872E+01   -2.6512873917260013E+01
B    1.2525251586910098E+01    2.3159431552069716E+01   -2.6291320543458028E+01
B    1.4755902110090558E+01    2.4380762815461036E+01   -2.6508510755007872E+01
N    5.2174620540843373E+00    1.3106537418210531E+01   -2.6471993348950225E+01
N    7.3610014028419180E+00    1.4391244759066302E+01   -2.6167415356745725E+01
N    5.1859690690251972E+00    1.5656667533921524E+01   -2.6316165984222447E+01
N    7.4220252877120219E+00    1.6860037727830104E+01   -2.5996628930645461E+01
N    5.3111659228294039E+00    1.8165504876454730E+01   -2.6416695290007880E+01
N    7.3936052449975636E+00    1.9394764106481496E+01   -2.6365355960045818E+01
N    5.2393232391147064E+00    2.0743061716148244E+01   -2.6418332770400660E+01
N    7.4301986955760588E+00    2.1938129069651218E+01   -2.6406405984287765E+01
N    5.2874619169532222E+00    2.3177307760374589E+01   -2.6413526261741843E+01
N    7.4665322689765814E+00    2.4433749442805883E+01   -2.6427741519772596E+01
N    9.5785540528655542E+00    1.3130647773950832E+01   -2.6221547729498280E+01
N    1.1782534224390160E+01    1.4390374885184412E+01   -2.6399837883500940E+01
N    9.6093890869483722E+00    1.5639061841114840E+01   -2.6030282085065576E+01
N    1.1849288596235157E+01    1.6905389132224851E+01   -2.6268165182744124E+01
N    9.5862428359430893E+00    1.8102132958197252E+01   -2.6078855466312341E+01
N    1.1785661373009436E+01    1.9388543237108610E+01   -2.6381664710964447E+01
N    9.5857859238685119E+00    2.0615578570930253E+01   -2.6407359277071421E+01
N    1.1774886594403032E+01    2.1905384398168110E+01   -2.6316451105454707E+01
N    9.6256720683011299E+00    2.3121967924866123E+01   -2.6239397788785546E+01
N    1.1794682353007339E+01    2.4431961491486874E+01   -2.6167582785733895E+01
N    1.3989362738747243E+01    1.3165360625193230E+01   -2.6357549987204880E+01
N    1.6176101299505856E+01    1.4371819425053049E+01   -2.6549987377553585E+01
N    1.4000419632528246E+01    1.5645840621622707E+01   -2.6388343060309111E+01
N    1.6106400698219833E+01    1.6895262634210120E+01   -2.6753501400976035E+01
N    1.3999011327672367E+01    1.8188778047114546E+01   -2.6425513271203105E+01
N    1.6176542980903875E+01    1.9381233998360706E+01   -2.6621050388859068E+01
N    1.3963657812168231E+01    2.0645217039359721E+01   -2.6502097350820790E+01
N    1.6158537565690647E+01    2.1866824187160585E+01   -2.6468672512523693E+01
N    1.3977136225251595E+01    2.3170587261865961E+01   -2.6480349889225298E+01
N    1.6200888447897569E+01    2.4348375570486812E+01   -2.6636578973790698E+01
B    3.8148689652934675E+00    2.5642386207134830E+01   -2.6660530360376882E+01
B    6.0450416517790595E+00    2.6926967020319562E+01   -2.6587494037012448E+01
B    3.8193550318559564E+00    2.8174534921953043E+01   -2.6552912647597477E+01
B    6.0903941746210304E+00    2.9415116125429904E+01   -2.6377700493654199E+01
B    3.8603354470450770E+00    3.0670108240082222E+01   -2.6363436048259079E+01
B    6.0535437866612956E+00    3.1972928317946405E+01   -2.6179542011502225E+01
B    3.8098600626408601E+00    3.3177608958666838E+01   -2.6284010745865682E+01
B    5.9858690377174719E+00    3.4451613179316922E+01   -2.6241619090239443E+01
B    3.8069123226650241E+00    3.5652133343664566E+01   -2.6429442940270871E+01
B    5.9763735876795696E+00    3.6966351646416143E+01   -2.6298527898999243E+01
B    8.1777162309638456E+00    2.5668711697325445E+01   -2.6343600237392256E+01
B    1.0364882804607840E+01    2.6877636450397976E+01   -2.6262504956399315E+01
B    8.2285672134350580E+00    2.8141761397031512E+01   -2.6385621352270814E+01
B    1.0401770678494579E+01    2.9409763956009211E+01   -2.6277273509761685E+01
B    8.1835053536137075E+00    3.0619772565391209E+01   -2.6201652503847306E+01
B    1.0303933498995717E+01    3.1949219128084259E+01   -2.6145695633871117E+01
B    8.1390642919506568E+00    3.3212250005604474E+01   -2.6150977308978067E+01
B    1.0317509155987301E+01    3.4486211965385301E+01   -2.6145927882768703E+01
B    8.1610366108064056E+00    3.5712135754822533E+01   -2.6128726922589497E+01
B    1.0282070463689893E+01    3.6979425246684372E+01   -2.6255521444224314E+01
B    1.2537784948735057E+01    2.5657918547461502E+01   -2.6394662411520780E+01
B    1.4735595402054450E+01    2.6807656397700182E+01   -2.6392194793068352E+01
B    1.2561851810323164E+01    2.8161705950547251E+01   -2.6411338450948953E+01
B    1.4651850518071273E+01    2.9400561238937961E+01   -2.6319346162352563E+01
B    1.2440977545430464E+01    3.0694066103678558E+01   -2.6229404593079757E+01
B    1.4664737222148995E+01    3.1897984708597829E+01   -2.6263952965391621E+01
B    1.2452498160872068E+01    3.3198913103824680E+01   -2.6136129846811158E+01
B    1.4661800725371837E+01    3.4370368936378000E+01   -2.6275921102550363E+01
B    1.2512151996092324E+01    3.5665026669944631E+01   -2.6430929863732420E+01
B    1.4694810420363012E+01    3.6979091989848470E+01   -2.6465118424026215E+01
N    5.2751195181246251E+00    2.5663036919316649E+01   -2.6614572004462723E+01
N    7.4894173707177361E+00    2.6904877091712979E+01   -2.6510286142215442E+01
N    5.2945534552483542E+00    2.8165822229189210E+01   -2.6536820836860613E+01
N    7.4935816223049514E+00    2.9381588550870312E+01   -2.6377601617731646E+01
N    5.3029105869063136E+00    3.0686502514430277E+01   -2.6213371671348497E+01
N    7.4653597433715877E+00    3.1915419440231293E+01   -2.6144497001656386E+01
N    5.2820885874923222E+00    3.3155030382578964E+01   -2.6196563798259032E+01
N    7.4292188895657345E+00    3.4498792989190264E+01   -2.6264110420454521E+01
N    5.2734127772698738E+00    3.5717941411214966E+01   -2.6335635560891763E+01
N    7.4580368613282815E+00    3.6968111011081994E+01   -2.6118934425755434E+01
N    9.5824406010428245E+00    2.5639625909638212E+01   -2.6154468224557569E+01
N    1.1847362992238757E+01    2.6912788526972658E+01   -2.6281938508060961E+01
N    9.6703479512945769E+00    2.8126061842119043E+01   -2.6289859457281288E+01
N    1.1810115142502157E+01    2.9433969996201348E+01   -2.6448509692179844E+01
N    9.6446106945059391E+00    3.0642169197114399E+01   -2.6142005806965507E+01
N    1.1751949177534339E+01    3.1917931543711504E+01   -2.6138519907280852E+01
N    9.5919853429686448E+00    3.3221561326099597E+01   -2.6071992708696481E+01
N    1.1757999886421896E+01    3.4428734722937328E+01   -2.6225435068559012E+01
N    9.5707350982420625E+00    3.5731676830056117E+01   -2.6052758031258577E+01
N    1.1757895889732245E+01    3.6922332285612363E+01   -2.6344602696736807E+01
N    1.3999733956856009E+01    2.5573690371831823E+01   -2.6421178939214705E+01
N    1.6151253470360981E+01    2.6868263259004799E+01   -2.6539774718533739E+01
N    1.3978800040850038E+01    2.8094748008962203E+01   -2.6333204777568291E+01
N    1.6022579615504402E+01    2.9373106052099985E+01   -2.6557844648592670E+01
N    1.3903054799795319E+01    3.0643201715478700E+01   -2.6182320842828869E+01
N    1.6079940341920683E+01    3.1918942772397251E+01   -2.6622262677578661E+01
N    1.3885062286605129E+01    3.3137036137667920E+01   -2.6256194497032443E+01
N    1.6129070507071653E+01    3.4382980131479556E+01   -2.6444702549874762E+01
N    1.3968129448949799E+01    3.5680906474823054E+01   -2.6408324184270640E+01
N    1.6153021603940047E+01    3.6925715473165845E+01   -2.6466795366035988E+01
O   -4.6603796215529520E+01    5.4489938753873638E+01   -1.3829946014572190E+01
H   -4.6195783189846168E+01    5.5000316977557937E+01   -1.3144524623374711E+01
H   -4.6942740546246284E+01    5.3792972166318769E+01   -1.3282666587573518E+01
O    7.7870942277742472E+00    1.7465212712039939E+01   -1.9163885261274082E+01
H    6.8636884349688465E+00    1.7178369970694721E+01   -1.8985602758544911E+01
H    7.7529751189535610E+00    1.8415058790024435E+01   -1.9253816336622947E+01
O   -9.3101657609844693E+01   -5.4557202130147235E+00   -1.1184528173030783E+01
H   -9.3400330807661661E+01   -4.5264689183557349E+00   -1.1154963083003357E+01
H   -9.3398790921084512E+01   -5.5995204943847545E+00   -1.2182527467490637E+01
O   -1.7758125809866458E+00    6.5719834936156019E+01   -1.5864620677020113E+01
H   -1.0887034577141850E+00    6.5283540182873281E+01   -1.5329846309294981E+01
H   -2.4909344573065830E+00    6.5071548899313669E+01   -1.5909853062315502E+01
O   -2.5087607435423909E+01   -2.0672962509071318E+01   -1.0212120379095150E+01
H   -2.4841157683994055E+01   -2.1652714528533767E+01   -1.0274663204572686E+01
H   -2.5941337451173080E+01   -2.0480991358440825E+01   -1.0737907146673738E+01
O   -1.4406070681264977E+01   -3.5600540457653672E+01   -1.4519333527789978E+01
H   -1.3679658577569421E+01   -3.5258940312871303E+01   -1.3888173033016946E+01
H   -1.4010088526493721E+01   -3.6152797591726269E+01   -1.5242938049793375E+01
O    2.1212871114737595E+01    2.3866398992660304E+01   -1.8674774941179844E+01
H    2.2193196630932970E+01    2.3639002215926698E+01   -1.8584329194719970E+01
H    2.1035402648322695E+01    2.4236565335689992E+01   -1.9606979948845805E+01
O    3.9273174801811798E+01    2.4557585870266568E+01   -8.6382534776035023E+00
H    3.9937578318418247E+01    2.5224364726279404E+01   -8.6841657206990739E+00
H    3.9665311050832237E+01    2.3695123289944551E+01   -9.0076421820927735E+00
O   -1.1574077078604068E+01    6.2564387287669589E+01   -2.2731302520226507E+01
H   -1.1725221607947425E+01    6.2742840275745714E+01   -2.1769859091869311E+01
H   -1.2240058963983785E+01    6.3119732750314270E+01   -2.3188528951987834E+01
O   -3.9862117266028565E+00    2.3081813628874752E+01   -9.2650091858573784E+00
H   -4.5571330194188251E+00    2.2539804995356082E+01   -9.8701993301047928E+00
H   -4.6675697202372390E+00    2.3755347223257619E+01   -8.9806515503154163E+00
O   -6.5667497668141934E+01   -5.1802767852393167E+01   -6.1004025741132075E+00
H   -6.5019103204208520E+01   -5.1448751551364317E+01   -5.5126829190576876E+00
H   -6.5308029094382874E+01   -5.1331145101153595E+01   -6.9971421642144565E+00
O    1.8936350086366748E+01    5.3656833649292409E+01   -2.1080852428519002E+01
H    1.9918095313456735E+01    5.3676404641486734E+01   -2.1125228462355842E+01
H    1.8662496769202154E+01    5.4651759895262515E+01   -2.1086556365866699E+01
O    3.4940808932467192E+01    2.5595469976550003E+01   -1.4008840885244577E+01
H    3.4455274511959040E+01    2.5545707296603837E+01   -1.4857906816293552E+01
H    3.5838966826277726E+01    2.5345890288666386E+01   -1.4111779137571130E+01
O    5.2816539446036366E+01   -1.2784869710089312E+01   -2.2604219617147358E+01
H    5.2771867154771208E+01   -1.2004706784887798E+01   -2.3207947993933391E+01
H    5.3746030190917608E+01   -1.3122482511289602E+01   -2.2627741055664405E+01
O   -3.6555885534758367E+01   -2.7052260689554128E+01   -2.3416871282265401E+01
H   -3.6366850650982961E+01   -2.6150577895872374E+01   -2.3725585989179990E+01
H   -3.6288592671028361E+01   -2.7238808808686748E+01   -2.2505706641640362E+01
O    5.7901764332917187E+00    2.9524037255767794E+01   -2.3081451543645898E+01
H    6.2954593579467293E+00    2.9109378851741212E+01   -2.3779577043542542E+01
H    5.1016184200860177E+00    2.8812830848495622E+01   -2.2920587749844593E+01
O   -2.2133505268430675E+01    2.1823578433692110E+00   -2.1895148820666108E+01
H   -2.2734854961264844E+01    1.4920923716076768E+00   -2.1532137893402176E+01
H   -2.1714694011228161E+01    2.3614488009773789E+00   -2.1033435502407464E+01
O   -3.1552121134811131E+00    6.9606809878852658E+01   -2.1289657651890128E+01
H   -2.8765130530093548E+00    6.9248261208314972E+01   -2.0374444629881371E+01
H   -4.1400722060518067E+00    6.9819368511887632E+01   -2.1237162559911472E+01
O   -3.3516089520482517E+01    2.6484036695447507E+01   -1.9538950537837479E+01