 # Version information for this restart file 
 # current date 2019-01-28 11:14:21.844
 # current working dir /scratch/snx3000/gtocci/gtocci/MEMBRANES/AIMD_US_IONS_GRA/potassium/aimd_us_pot/us_22
 # Program compiled at                             Thu Oct 11 21:49:41 CEST 2018
 # Program compiled on                                                  daint104
 # Program compiled for                                   CRAY_XC50-gfortran_gpu
 # Source code revision number                                     git:be74c20a5
 &GLOBAL
   PRINT_LEVEL  LOW
   PROJECT_NAME GRAS
   RUN_TYPE  MD
   WALLTIME 10200
 &END GLOBAL
 &MOTION
   &MD
     ENSEMBLE  NVT
     STEPS  100000
     TIMESTEP     9.9999999999999989E-01
     STEP_START_VAL  40631
     TIME_START_VAL     4.0630999999990978E+04
     ECONS_START_VAL    -8.3206034890321753E+03
     TEMPERATURE     3.0000000000000000E+02
     TEMP_KIND  T
     &BAROSTAT
       PRESSURE     1.0000000000000000E+00
       TIMECON     9.9999999999999986E+01
       VIRIAL  Z
     &END BAROSTAT
     &THERMOSTAT
       TYPE  NOSE
       REGION  GLOBAL
       &NOSE
         LENGTH  4
         TIMECON     9.9999999999999986E+01
         MTS  2
         &COORD
               1.3480041677508975E-01   -4.5812028449356221E+00    2.6018865666317024E+00    7.5349433089618838E+00
         &END COORD
         &VELOCITY
               3.6577807889471041E-06    2.2562649278934198E-04    4.7032453919168291E-05    5.0166516241360653E-04
         &END VELOCITY
         &MASS
               7.0145132684705392E+07    1.6237299232570693E+04    1.6237299232570693E+04    1.6237299232570693E+04
         &END MASS
         &FORCE
               9.7012236918398422E-10   -7.1117735414611471E-10   -7.6026996016860792E-09   -5.6297962128446386E-08
         &END FORCE
       &END NOSE
     &END THERMOSTAT
     &AVERAGES  T
       &RESTART_AVERAGES
         ITIMES_START  1
         AVECPU     4.6458950207209824E+01
         AVEHUGONIOT     0.0000000000000000E+00
         AVETEMP_BARO     0.0000000000000000E+00
         AVEPOT    -8.3232485229151735E+03
         AVEKIN     2.0533538461247276E+00
         AVETEMP     3.0018383693526863E+02
         AVEKIN_QM     0.0000000000000000E+00
         AVETEMP_QM     0.0000000000000000E+00
         AVEVOL     2.1331414786628087E+05
         AVECELL_A     4.8437460238125638E+01
         AVECELL_B     4.6608961231944598E+01
         AVECELL_C     9.4486306644279466E+01
         AVEALPHA     9.0000000000000057E+01
         AVEBETA     9.0000000000000057E+01
         AVEGAMMA     9.0000000000000057E+01
         AVE_ECONS    -1.7878040449018446E+00
         AVE_PRESS     0.0000000000000000E+00
         AVE_PXX     0.0000000000000000E+00
       &END RESTART_AVERAGES
     &END AVERAGES
     &PRINT
       &TEMP_KIND  SILENT
       &END TEMP_KIND
     &END PRINT
   &END MD
   &FREE_ENERGY
     &METADYN
       MIN_DISP    -1.0000000000000000E+00
       OLD_HILL_NUMBER  0
       OLD_HILL_STEP  0
       DO_HILLS  F
       STEP_START_VAL  40631
       NHILLS_START_VAL  0
       &METAVAR
         SCALE     1.0000000000000000E+00
         COLVAR  1
       &END METAVAR
       &PRINT
         &COLVAR  SILENT
           COMMON_ITERATION_LEVELS  3
           &EACH
             MD  1
           &END EACH
         &END COLVAR
       &END PRINT
     &END METADYN
   &END FREE_ENERGY
   &CONSTRAINT
     &COLLECTIVE
       COLVAR  1
       INTERMOLECULAR  T
       &RESTRAINT
         K     4.4625385281452931E-04
       &END RESTRAINT
     &END COLLECTIVE
     &COLVAR_RESTART
           2.0786987461742079E+01
     &END COLVAR_RESTART
   &END CONSTRAINT
   &PRINT
     &TRAJECTORY  SILENT
       &EACH
         MD  1
       &END EACH
     &END TRAJECTORY
     &VELOCITIES  SILENT
       &EACH
         MD  1
       &END EACH
     &END VELOCITIES
     &FORCES  SILENT
       UNIT eV*angstrom^-1
       &EACH
         MD  1
       &END EACH
     &END FORCES
     &RESTART  SILENT
       &EACH
         MD  1
       &END EACH
     &END RESTART
     &RESTART_HISTORY  SILENT
       &EACH
         MD  100
       &END EACH
     &END RESTART_HISTORY
   &END PRINT
 &END MOTION
 &FORCE_EVAL
   METHOD  QS
   &DFT
     BASIS_SET_FILE_NAME /users/gtocci/scratch_daint_3000/data_cp2k//BASIS_MOLOPT
     POTENTIAL_FILE_NAME /users/gtocci/scratch_daint_3000/data_cp2k//GTH_POTENTIALS
     WFN_RESTART_FILE_NAME ./GRAS-RESTART.wfn
     CHARGE  1
     &SCF
       MAX_SCF  10
       EPS_SCF     9.9999999999999995E-07
       SCF_GUESS  RESTART
       &OT  T
         MINIMIZER  DIIS
         PRECONDITIONER  FULL_KINETIC
       &END OT
       &OUTER_SCF  T
         EPS_SCF     9.9999999999999995E-07
         MAX_SCF  30
       &END OUTER_SCF
       &PRINT
         &RESTART  SILENT
           ADD_LAST  NUMERIC
           &EACH
             QS_SCF  50
           &END EACH
         &END RESTART
       &END PRINT
     &END SCF
     &QS
       MAP_CONSISTENT  T
       EXTRAPOLATION  ASPC
       EXTRAPOLATION_ORDER  4
     &END QS
     &MGRID
       NGRIDS  5
       CUTOFF     4.6000000000000000E+02
     &END MGRID
     &XC
       DENSITY_CUTOFF     1.0000000000000000E-10
       GRADIENT_CUTOFF     1.0000000000000000E-10
       TAU_CUTOFF     1.0000000000000000E-10
       &XC_GRID
         XC_DERIV  SPLINE2_SMOOTH
       &END XC_GRID
       &XC_FUNCTIONAL  NO_SHORTCUT
         &LIBXC  T
           FUNCTIONAL XC_GGA_X_OPTB88_VDW
         &END LIBXC
         &VWN  T
         &END VWN
       &END XC_FUNCTIONAL
       &VDW_POTENTIAL
         POTENTIAL_TYPE  NON_LOCAL
         &NON_LOCAL
           TYPE  DRSLL
           VERBOSE_OUTPUT  T
           KERNEL_FILE_NAME /users/gtocci/scratch_daint_3000/data_cp2k//vdW_kernel_table.dat
         &END NON_LOCAL
       &END VDW_POTENTIAL
     &END XC
     &REAL_TIME_PROPAGATION
       INITIAL_WFN  SCF_WFN
     &END REAL_TIME_PROPAGATION
     &PRINT
       &MULLIKEN  SILENT
         FILENAME =GRAS.mulliken
       &END MULLIKEN
     &END PRINT
   &END DFT
   &SUBSYS
     &CELL
       A     2.5632000000000001E+01    0.0000000000000000E+00    0.0000000000000000E+00
       B     0.0000000000000000E+00    2.4664400000000022E+01    0.0000000000000000E+00
       C     0.0000000000000000E+00    0.0000000000000000E+00    5.0000000000000028E+01
       MULTIPLE_UNIT_CELL  1 1 1
     &END CELL
     &COORD
C    6.4476530579401219E+00    6.4812476666314582E+00    5.2825370170339667E+00
C    7.8871649355890732E+00    6.4874216499122337E+00    5.3230169101483744E+00
C    8.6484131374662816E+00    7.7161597467188043E+00    5.3277140848474813E+00
C    1.0028252323678775E+01    7.7356090911309519E+00    5.3108622182295200E+00
C    6.5000626347009609E+00    8.9608849994069484E+00    5.1387642197372960E+00
C    7.9412255591535956E+00    8.9183115434690485E+00    5.1795539877781600E+00
C    8.5974225203373607E+00    1.0182156677134735E+01    5.2179468875256214E+00
C    1.0003442054032265E+01    1.0200172607799109E+01    5.1380508387888604E+00
C    6.4861734306978542E+00    1.1416953108583568E+01    5.0334848755258168E+00
C    7.8894836875352343E+00    1.1412329381513189E+01    5.1265559764849167E+00
C    8.5928830282202213E+00    1.2648237649124509E+01    4.9923734950237382E+00
C    1.0031708647516925E+01    1.2668301585896780E+01    4.9968953348580820E+00
C    6.4674571434536263E+00    1.3871048009936505E+01    4.9463098425162224E+00
C    7.9010098549834176E+00    1.3902544212976519E+01    4.9793128793516139E+00
C    8.6404596550248751E+00    1.5124581747412565E+01    5.0727717763981310E+00
C    1.0094564018110978E+01    1.5099180851063874E+01    5.1009019996222529E+00
C    6.4949616442918972E+00    1.6316865873703239E+01    5.1230209544796370E+00
C    7.9317571311478181E+00    1.6333203520450013E+01    5.1132861090293220E+00
C    8.5721359253570135E+00    5.2454440573142556E+00    5.4294904972754576E+00
C    1.0009765896580832E+01    5.2562773542268877E+00    5.4418915720863863E+00
C    1.0746030298743271E+01    6.4857962849835129E+00    5.3193802473255332E+00
C    1.2174260003869021E+01    6.5091459436018368E+00    5.1907627596007204E+00
C    1.2855524502964148E+01    7.7495206021588698E+00    5.1217091800165759E+00
C    1.4277410539565359E+01    7.7339522418890185E+00    5.1633194076981752E+00
C    1.0736537041386692E+01    8.9652313944715551E+00    5.1305431405696167E+00
C    1.2159282510458345E+01    8.9676501604635099E+00    5.0598163585305267E+00
C    1.2859684629415328E+01    1.0206810534689463E+01    4.9063699992903942E+00
C    1.4296632104739905E+01    1.0225768760223824E+01    4.9277276254373650E+00
C    1.0726159280246804E+01    1.1425780630292575E+01    4.9792430801955518E+00
C    1.2140559291901109E+01    1.1423097964953691E+01    4.8705258262888504E+00
C    1.2852574318603756E+01    1.2620163720708131E+01    4.7703865336752038E+00
C    1.4284759678886594E+01    1.2632390875526973E+01    4.7291673257838394E+00
C    1.0783901611453768E+01    1.3891725900295452E+01    4.9193197506544672E+00
C    1.2159956457764730E+01    1.3872093953146770E+01    4.7730716762148937E+00
C    1.2894940473003798E+01    1.5114423569558715E+01    4.8735679812936752E+00
C    1.4332444624638340E+01    1.5156715680617909E+01    4.7957601218659143E+00
C    1.0807896530472400E+01    1.6370797011811806E+01    5.1767317316339811E+00
C    1.2232158531153889E+01    1.6351204672948601E+01    5.1646730946224606E+00
C    1.2855910736759993E+01    5.2523785953767002E+00    5.1777997569355039E+00
C    1.4298632366274472E+01    5.2720085334062361E+00    5.2146290308609755E+00
C    1.4988127614611487E+01    6.5294978530414438E+00    5.2651733514193131E+00
C    1.6402328812470031E+01    6.5421912613394619E+00    5.3868900313913937E+00
C    1.7105321794673738E+01    7.7555334163658749E+00    5.3238540609682383E+00
C    1.8550675883127010E+01    7.7503232852940149E+00    5.4139790102851544E+00
C    1.4968068839676574E+01    8.9632336552949763E+00    5.0634231122033633E+00
C    1.6405091337970557E+01    8.9907597160479433E+00    5.1572912267698801E+00
C    1.7114902373327876E+01    1.0167457265575727E+01    4.9628076751070758E+00
C    1.8549508169778687E+01    1.0179794391551269E+01    5.0209048096546498E+00
C    1.5027852856111327E+01    1.1450096403509564E+01    4.8472876836004231E+00
C    1.6445910405076706E+01    1.1433112726887954E+01    4.8813130699818270E+00
C    1.7165728383010379E+01    1.2663767156868238E+01    4.8154879250411495E+00
C    1.8581550954312345E+01    1.2676296095760831E+01    4.7947262825108465E+00
C    1.5007140532923218E+01    1.3890061585223007E+01    4.8328767217019211E+00
C    1.6453078158929095E+01    1.3946093133314992E+01    4.8534371149351472E+00
C    1.7156575877391429E+01    1.5149058940178806E+01    4.9329447788508975E+00
C    1.8584456920998520E+01    1.5131162880409047E+01    5.0002867195706848E+00
C    1.5049727451278944E+01    1.6379585333003469E+01    4.9709056200501038E+00
C    1.6472351604481322E+01    1.6379470937100670E+01    5.0110259080962152E+00
C    1.7140054974030964E+01    5.2781558368881676E+00    5.4066314589422095E+00
C    1.8535961407612806E+01    5.3037654038209299E+00    5.5529107291290751E+00
C    6.4721106558792814E+00    1.8803988891010906E+01    5.2301488105855052E+00
C    7.9032858500316125E+00    1.8823642526001144E+01    5.2698373614940168E+00
C    8.5844953512319524E+00    2.0040253807021053E+01    5.4237480800530244E+00
C    1.0022091398815308E+01    2.0078785663345400E+01    5.4484799384672717E+00
C    6.4418441486885243E+00    2.1243805676546280E+01    5.4938906902408942E+00
C    7.8720212179302145E+00    2.1260458527267218E+01    5.5224315857875874E+00
C    8.6114168068978003E+00    2.2502842879456697E+01    5.5930289659020911E+00
C    1.0022413338971027E+01    2.2497099100006448E+01    5.5771427263790176E+00
C    6.4471672989695623E+00    2.3722171481199116E+01    5.5522479219730503E+00
C    7.8963606117628204E+00    2.3711047268248663E+01    5.5181784957635855E+00
C    8.5827712955994890E+00    2.4986564477340330E+01    5.5774387147185092E+00
C    1.0015978121526057E+01    2.4968908493151805E+01    5.5233695627674519E+00
C    6.4775694362402794E+00    2.6199040511667025E+01    5.6607078909378510E+00
C    7.9116244052750702E+00    2.6205348673139191E+01    5.5901777845714706E+00
C    8.6020882889724941E+00    2.7430753610298215E+01    5.4681744501929446E+00
C    1.0024747972426162E+01    2.7435247080153552E+01    5.3907685698690919E+00
C    6.4420080861528968E+00    2.8713997263271278E+01    5.5613045502499743E+00
C    7.8729746657574271E+00    2.8671602860173778E+01    5.5004354462229061E+00
C    8.6409973373580868E+00    1.7591182711080044E+01    5.2021441833694340E+00
C    1.0069126971512794E+01    1.7607415397795002E+01    5.2400178654016765E+00
C    1.0762430607722932E+01    1.8876318222507670E+01    5.2840435639622676E+00
C    1.2169285521240717E+01    1.8833922523877472E+01    5.3116781305976035E+00
C    1.2889752635713197E+01    2.0071489031984619E+01    5.4073769147277844E+00
C    1.4288437765338978E+01    2.0069476230998504E+01    5.3805718687491328E+00
C    1.0718566314949921E+01    2.1249603024212018E+01    5.5210969422880600E+00
C    1.2166620951381955E+01    2.1311485104715917E+01    5.4509433923635680E+00
C    1.2834155177369079E+01    2.2528571160568450E+01    5.4314645558973007E+00
C    1.4299049896350246E+01    2.2540634583839122E+01    5.3925057301145687E+00
C    1.0714972679421939E+01    2.3709149698578230E+01    5.5358422221234456E+00
C    1.2139896566955846E+01    2.3765663267560921E+01    5.4590518915969657E+00
C    1.2878010252110835E+01    2.4983770519167713E+01    5.3373322514526897E+00
C    1.4299480296926603E+01    2.5006612362728568E+01    5.4094522649046946E+00
C    1.0736688976535897E+01    2.6176272418858112E+01    5.4246270977984716E+00
C    1.2172748470929450E+01    2.6216672113902810E+01    5.3202884473151135E+00
C    1.2910822197316770E+01    2.7450315394456425E+01    5.3058249603009617E+00
C    1.4324996592118451E+01    2.7461044408350194E+01    5.3088714465056421E+00
C    1.0728759413180486E+01    2.8679267895854611E+01    5.3719903365062871E+00
C    1.2188383881608148E+01    2.8682461017780117E+01    5.2439535526892866E+00
C    1.2910818522302272E+01    1.7609000092874332E+01    5.2257266273163996E+00
C    1.4351253115372234E+01    1.7624265981256585E+01    5.1788842066690428E+00
C    1.5014909474976404E+01    1.8869830254844850E+01    5.2088820207049622E+00
C    1.6452990481211661E+01    1.8835496052869313E+01    5.1076953300411096E+00
C    1.7169760392534098E+01    2.0071259186468701E+01    5.1087895287586642E+00
C    1.8576775858586132E+01    2.0081434156223398E+01    4.9754032075638595E+00
C    1.5031058576329086E+01    2.1328006768341883E+01    5.3968695513877618E+00
C    1.6468123021266038E+01    2.1319072833040568E+01    5.2782474125392680E+00
C    1.7187834608131482E+01    2.2543385418082927E+01    5.2918195990499362E+00
C    1.8598102086618312E+01    2.2516776675759349E+01    5.1332079183307364E+00
C    1.4997524130144964E+01    2.3780063003736320E+01    5.4724018569804134E+00
C    1.6436887255880283E+01    2.3751593751625911E+01    5.4310871292434566E+00
C    1.7138133345767660E+01    2.4999133255605226E+01    5.4154017094853346E+00
C    1.8523487856309298E+01    2.4954042791603314E+01    5.3975120192609571E+00
C    1.5013265465708132E+01    2.6212933687461398E+01    5.3850433306373926E+00
C    1.6429151857051195E+01    2.6229606727504883E+01    5.4071436962697534E+00
C    1.7153224848999386E+01    2.7458838684688978E+01    5.3168489446227190E+00
C    1.8585770135595290E+01    2.7503243605035905E+01    5.4325063197208427E+00
C    1.5017618674984240E+01    2.8730579861004248E+01    5.2351527358553085E+00
C    1.6420419011527702E+01    2.8697646332575196E+01    5.3152209647110125E+00
C    1.7155490630050323E+01    1.7582512605147485E+01    5.0804534591511059E+00
C    1.8578831348806336E+01    1.7611894653689248E+01    4.9646623852868395E+00
C    1.9254639167926204E+01    6.5078694489629587E+00    5.6408200950451270E+00
C    2.0679260220470752E+01    6.5542518282772937E+00    5.6720623752445700E+00
C    2.1459348750094584E+01    7.7823324602264581E+00    5.5209027301247913E+00
C    2.2892475053296554E+01    7.7605640455190938E+00    5.4347935374850236E+00
C    1.9273897333989712E+01    8.9762273881732142E+00    5.2402670208979725E+00
C    2.0753402310618071E+01    8.9886268377865068E+00    5.2160265277498263E+00
C    2.1441313723227790E+01    1.0212489178746438E+01    5.0173888278655383E+00
C    2.2887220410219779E+01    1.0186791619578566E+01    5.0853229764437620E+00
C    1.9275118487916011E+01    1.1419346918436403E+01    4.7964328020214895E+00
C    2.0705722681137310E+01    1.1399197730819564E+01    4.7655032722800774E+00
C    2.1442625286081828E+01    1.2631749191111412E+01    4.8640017357529626E+00
C    2.2876097252146984E+01    1.2600588278403571E+01    4.9793191099531384E+00
C    1.9306515654247992E+01    1.3877891238565390E+01    4.9563212391581759E+00
C    2.0719560535025117E+01    1.3866053417566254E+01    4.9543646479907926E+00
C    2.1403537537202482E+01    1.5134078494328277E+01    4.8174244609435117E+00
C    2.2826395414990156E+01    1.5121516199150712E+01    4.8287793275605759E+00
C    1.9290536403631311E+01    1.6380186239374080E+01    4.9996308108298031E+00
C    2.0701345687542066E+01    1.6369392062051620E+01    4.9068014649105711E+00
C    2.1391201031625769E+01    5.3095583470653320E+00    5.6992917387261919E+00
C    2.2829617878329824E+01    5.2944044492349676E+00    5.6529078691437613E+00
C    2.3548556635030337E+01    6.5204481221932094E+00    5.5447724578787732E+00
C    2.4982331711655100E+01    6.4702950743806724E+00    5.5270389647513820E+00
C    2.5763862054378055E+01    7.6896669270771030E+00    5.3654664551106874E+00
C    2.7170752035636415E+01    7.7262242446485363E+00    5.4300995351476358E+00
C    2.3607920759748946E+01    8.9610678422155736E+00    5.2461516875501992E+00
C    2.5026216836898261E+01    8.9145717491582950E+00    5.2053523379795559E+00
C    2.5750624222562134E+01    1.0170286112216854E+01    5.0708079132067105E+00
C    2.7150547741845731E+01    1.0137356855548608E+01    5.1954514686901749E+00
C    2.3631350584467210E+01    1.1413611919606899E+01    5.0819640449017953E+00
C    2.5056221645504728E+01    1.1392893874608124E+01    5.0109317279963044E+00
C    2.5712000968909123E+01    1.2632052169070425E+01    4.9555066241720880E+00
C    2.7145635279648726E+01    1.2609951202504105E+01    5.0410269316007321E+00
C    2.3561210644487719E+01    1.3881250232557955E+01    4.9956861672653696E+00
C    2.4995210877693729E+01    1.3860391266413341E+01    5.0147028181134683E+00
C    2.5676038600433504E+01    1.5102338171743632E+01    4.9377659940590313E+00
C    2.7100708908833518E+01    1.5055952689977124E+01    5.0533174591213381E+00
C    2.3582402513571157E+01    1.6337716404578273E+01    4.7744073453605420E+00
C    2.5004150770770615E+01    1.6393299011049038E+01    4.8821364181999165E+00
C    2.5655735990736648E+01    5.2784761574511343E+00    5.4081877269804828E+00
C    2.7087261797262162E+01    5.3071426603618637E+00    5.3174406571673396E+00
C    2.7825622359201898E+01    6.5029804154124715E+00    5.3918896444508428E+00
C    2.9243275476316558E+01    6.4472856803105199E+00    5.3545894603980875E+00
C    2.9970255076007238E+01    7.7218663237338623E+00    5.2595749629506852E+00
C    3.1432634728715502E+01    7.7223465845797143E+00    5.2068697609736434E+00
C    2.7869004837826864E+01    8.9347883123935379E+00    5.3041512598671519E+00
C    2.9314353398706590E+01    8.9716112698090758E+00    5.2628989230649177E+00
C    3.0024477921988513E+01    1.0187680301382887E+01    5.2402232541292673E+00
C    3.1414023060247491E+01    1.0212719182950222E+01    5.1298456880789081E+00
C    2.7834060450415404E+01    1.1394122254733722E+01    5.1509612153485715E+00
C    2.9282125417743707E+01    1.1400163086466527E+01    5.1973056563107347E+00
C    2.9992001940539385E+01    1.2659140162543565E+01    5.0612959422976900E+00
C    3.1410272499755010E+01    1.2628309040638607E+01    4.9643540635026611E+00
C    2.7872126791443925E+01    1.3841908315065293E+01    5.0440477239485073E+00
C    2.9288111327686668E+01    1.3858934836084616E+01    5.0439020895249449E+00
C    2.9948409542211149E+01    1.5089528134165743E+01    5.0250826888323497E+00
C    3.1367101966695373E+01    1.5126234937062753E+01    5.0313555307009494E+00
C    2.7787168019064328E+01    1.6321393803945742E+01    5.0655511481312834E+00
C    2.9231120744555849E+01    1.6310557405242530E+01    5.0687266678764766E+00
C    2.9947828522263865E+01    5.2049590999063522E+00    5.3222360128589825E+00
C    3.1381078683640716E+01    5.2798422405240757E+00    5.3900412695166828E+00
C    1.9295411529526874E+01    1.8869005478157099E+01    4.9320339338122618E+00
C    2.0720918504902105E+01    1.8828900898366509E+01    4.8360158162402218E+00
C    2.1411535206220844E+01    2.0054202202651318E+01    4.8242763773393929E+00
C    2.2872856160401518E+01    2.0062628011029400E+01    4.7991455516904882E+00
C    1.9280686945011993E+01    2.1313866974023568E+01    4.9872881165862584E+00
C    2.0732961117000229E+01    2.1305125762278411E+01    4.9861467907690544E+00
C    2.1437939458230012E+01    2.2521855189259441E+01    5.0971169113898807E+00
C    2.2878950832374251E+01    2.2556076166204225E+01    5.0419376236046407E+00
C    1.9244989244351324E+01    2.3751701604829393E+01    5.2787349259172869E+00
C    2.0689684456218302E+01    2.3736826237683175E+01    5.2580707262874249E+00
C    2.1388544006944766E+01    2.4967257731562981E+01    5.3273498784012832E+00
C    2.2860228140036956E+01    2.4990022589284798E+01    5.3151999100948881E+00
C    1.9260125777635810E+01    2.6219111513691185E+01    5.4077275049772080E+00
C    2.0689850059118946E+01    2.6208122975971481E+01    5.3854428386709294E+00
C    2.1377054567494355E+01    2.7441528839653525E+01    5.5405950079926560E+00
C    2.2809061083306588E+01    2.7467557951420158E+01    5.4953902097519540E+00
C    1.9256684138848435E+01    2.8729852572168383E+01    5.5584181517628926E+00
C    2.0698842965443518E+01    2.8717039580507830E+01    5.6463946607815423E+00
C    2.1419103243507635E+01    1.7601383414478917E+01    4.8344352221838891E+00
C    2.2863205148948609E+01    1.7565668356577707E+01    4.8121173462770725E+00
C    2.3619720992054326E+01    1.8836331554051284E+01    4.8231240290126616E+00
C    2.5026287045322153E+01    1.8879188548209584E+01    4.9277479403389206E+00
C    2.5726581277781353E+01    2.0113920827209320E+01    5.1001625475688357E+00
C    2.7154903881422772E+01    2.0069491119038673E+01    5.0896274222413975E+00
C    2.3577412297416757E+01    2.1321261857761719E+01    4.9072751264888499E+00
C    2.4995200753934785E+01    2.1346379768747816E+01    5.0827136896227048E+00
C    2.5701265401588550E+01    2.2521986990304647E+01    5.1533746121584949E+00
C    2.7115137205101050E+01    2.2498954942227243E+01    5.3599075249065464E+00
C    2.3577055410521879E+01    2.3771319983409338E+01    5.1956355636564799E+00
C    2.5021282591834314E+01    2.3765021057035597E+01    5.1526455913648466E+00
C    2.5706416779460429E+01    2.4987038314903494E+01    5.2221631263301251E+00
C    2.7148572448222012E+01    2.4979109591198664E+01    5.4171249460340363E+00
C    2.3545816249031041E+01    2.6256170344746760E+01    5.3527071057188698E+00
C    2.4964368480967714E+01    2.6215040214899101E+01    5.2436473597582696E+00
C    2.5647192740207959E+01    2.7441474271490467E+01    5.3619192053179319E+00
C    2.7098843223763492E+01    2.7464303878012377E+01    5.3914679857742671E+00
C    2.3500170062805893E+01    2.8705822878934764E+01    5.5575541335381713E+00
C    2.4964524516203166E+01    2.8693136548801558E+01    5.4243591115690020E+00
C    2.5715417057836074E+01    1.7635423508398961E+01    4.9763380159635640E+00
C    2.7145351309643967E+01    1.7607037763612251E+01    5.1073494697451238E+00
C    2.7888504862674537E+01    1.8804335790880163E+01    5.1702575175872845E+00
C    2.9285935522779560E+01    1.8780185908933930E+01    5.1222201429009218E+00
C    2.9951518934727410E+01    2.0014660473051549E+01    5.2297735683900690E+00
C    3.1396431459437192E+01    2.0019451597244814E+01    5.3000122301056551E+00
C    2.7860858755560546E+01    2.1287570484348226E+01    5.2137041456494781E+00
C    2.9287385139810581E+01    2.1263217119013824E+01    5.2961439604695970E+00
C    2.9965964390241830E+01    2.2467647175003311E+01    5.4640020529341644E+00
C    3.1375580038106982E+01    2.2494035495395817E+01    5.4907499685980641E+00
C    2.7838854550623019E+01    2.3725642923252170E+01    5.4594617039283779E+00
C    2.9269352762731788E+01    2.3694820450101293E+01    5.5160229075701306E+00
C    2.9944640688189377E+01    2.4928973050161716E+01    5.6102924415036837E+00
C    3.1406074463486775E+01    2.4943058753151075E+01    5.6046856415008204E+00
C    2.7855622302922203E+01    2.6206435988533666E+01    5.4539329904987390E+00
C    2.9253232467245525E+01    2.6158292740129149E+01    5.5875122290249291E+00
C    2.9944835199564114E+01    2.7385667377030124E+01    5.5759551299042061E+00
C    3.1324049468837135E+01    2.7395939006020484E+01    5.6494882492073364E+00
C    2.7832451089530007E+01    2.8698752112135267E+01    5.3240698415920589E+00
C    2.9255982140755499E+01    2.8639679257141768E+01    5.4125127285272017E+00
C    2.9989433004312495E+01    1.7544690783519208E+01    5.1362103862850281E+00
C    3.1419701165217631E+01    1.7539305499605820E+01    5.1640562842407540E+00
O    1.2122909048444468E+02    6.5428550966802476E+01    2.0754537588886063E+01
H    1.2190460208922678E+02    6.4696341303745555E+01    2.0703718807937420E+01
H    1.2160104100477166E+02    6.6114426182025127E+01    2.1397530062792796E+01
O    6.8321328883329713E+01    2.0054188807952306E+02    1.4469331553505917E+01
H    6.7853914733376754E+01    2.0057024808970490E+02    1.3631980824738589E+01
H    6.8095678955655330E+01    1.9966457863671508E+02    1.4849574528697428E+01
O    3.4055683339124741E+01    2.7451415667374539E+02    2.3520372368729060E+01
H    3.4377931175845482E+01    2.7357214289409171E+02    2.3388603500997004E+01
H    3.3319657460172188E+01    2.7442566079068740E+02    2.4095927694787584E+01
O    1.6877639030630397E+02    1.5136738511265659E+02    1.8090061332824977E+01
H    1.6842942905203898E+02    1.5163378367734768E+02    1.9000525846477103E+01
H    1.6972862283213180E+02    1.5118762129019814E+02    1.8277604192753973E+01
O    1.1001215877167422E+02    2.7151670175302246E+02    1.8968107087493408E+01
H    1.1005637373076148E+02    2.7190359313478052E+02    1.9951005385931627E+01
H    1.1079418562740400E+02    2.7095301421501750E+02    1.8683320715272622E+01
O    7.2649894706865112E+01    1.2584292861952996E+02    2.0028226775597574E+01
H    7.2150891145598735E+01    1.2625089701832128E+02    1.9309278849152022E+01
H    7.2447873529359882E+01    1.2634475932930326E+02    2.0868480641163167E+01
O    1.6767760057331580E+02    2.3887504271060405E+02    2.1719280010756215E+01
H    1.6730740736471961E+02    2.3896104334435091E+02    2.0853422958035434E+01
H    1.6854727044781185E+02    2.3845564583381741E+02    2.1526364371291351E+01
O    6.9862536707915126E+01    7.2836060217500048E+01    2.0829098075139527E+01
H    7.0548067837462483E+01    7.2779256174060578E+01    2.0133867117375512E+01
H    6.9966783621252191E+01    7.3666360895726527E+01    2.1283057142575231E+01
O   -4.3143037178833570E+00    2.0594393732562574E+02    1.1252759296404507E+01
H   -3.5270235239915060E+00    2.0556595999140467E+02    1.1680569970375014E+01
H   -4.1289780380479266E+00    2.0590474037724417E+02    1.0265165015343952E+01
O    1.1649687537445861E+02    2.4696720066578581E+02    1.5256753242649431E+01
H    1.1630545601327245E+02    2.4793973932840052E+02    1.4872871095505660E+01
H    1.1640643002732756E+02    2.4685435331288153E+02    1.6219249880352674E+01
O    4.8447542547338522E+01    2.4165301623100731E+02    1.1327933001456577E+01
H    4.8985954299363115E+01    2.4163888055077453E+02    1.0529472868117653E+01
H    4.7480954930757918E+01    2.4162975040829633E+02    1.1024328802116019E+01
O    7.4549633804151778E+00    1.9749463321775502E+02    1.1681999604048148E+01
H    7.8061641589720638E+00    1.9666415005756033E+02    1.2008976089389918E+01
H    8.1636020477441722E+00    1.9813979823522658E+02    1.1820898790288105E+01
O    6.6742554513333701E+01    1.5788655260584528E+02    2.2658423511648309E+01
H    6.6383988612729880E+01    1.5847363149208246E+02    2.1992328926508073E+01
H    6.6314622010226884E+01    1.5703222751056481E+02    2.2550446864961444E+01
O    7.0709353268647163E+01   -2.6071292001175608E+00    1.3955754677873355E+01
H    7.1741043576944634E+01   -2.6537259920439618E+00    1.3919512152695303E+01
H    7.0244296596351845E+01   -3.4720204040310829E+00    1.4256947877126320E+01
O   -4.1006054713560030E+00    3.8531471195409631E+02    1.5333558448983334E+01
H   -3.1616067472091536E+00    3.8564948239292858E+02    1.5130796308518361E+01
H   -4.0931189909428021E+00    3.8473423802329472E+02    1.6155820090172480E+01
O    3.0947794143129588E+01    2.4285342472049669E+02    1.1695581722053857E+01
H    3.0066434886753370E+01    2.4231138566157537E+02    1.1653433617034281E+01
H    3.1041187760469377E+01    2.4327282485267926E+02    1.0784877453571941E+01
O    4.9293846683522368E+01    1.5682637458325675E+02    1.7986158437363692E+01
H    4.9179534975106151E+01    1.5598563192202553E+02    1.8595139488979573E+01
H    5.0103512552542185E+01    1.5736313615060786E+02    1.8151572008407864E+01
O    1.0093674043443004E+02    2.3816284033271143E+02    1.4641022424092828E+01
H    1.0123519546629039E+02    2.3740003865718631E+02    1.4087269492542262E+01
H    1.0097477717925487E+02    2.3905287187986383E+02    1.4135004945893172E+01
O    2.6803021535848263E+01    1.2433404681965001E+02    1.4502178056354113E+01
H    2.6194584541303890E+01    1.2423264018670992E+02    1.3769557816109614E+01