 # Version information for this restart file 
 # current date 2020-01-19 14:05:22.673
 # current working dir /scratch/snx3000/gtocci/gtocci/MEMBRANES/AIMD_US_IONS_BN/aimd_us_iodide/us_25
 # Program compiled at                              Fri Nov 22 15:19:42 CET 2019
 # Program compiled on                                                  daint102
 # Program compiled for                                   CRAY_XC50-gfortran_gpu
 # Source code revision number                                       git:a698b45
 &GLOBAL
   PRINT_LEVEL  LOW
   PROJECT_NAME BNS
   RUN_TYPE  MD
   WALLTIME 86400
 &END GLOBAL
 &MOTION
   &MD
     ENSEMBLE  NVT
     STEPS  2000
     TIMESTEP     9.9999999999999989E-01
     STEP_START_VAL  40950
     TIME_START_VAL     4.0949999999990752E+04
     ECONS_START_VAL    -8.4829016361947233E+03
     TEMPERATURE     3.0000000000000000E+02
     TEMP_KIND  T
     &BAROSTAT
       PRESSURE     1.0000000000000000E+00
       TIMECON     9.9999999999999986E+01
       VIRIAL  Z
     &END BAROSTAT
     &THERMOSTAT
       TYPE  NOSE
       REGION  GLOBAL
       &NOSE
         LENGTH  4
         TIMECON     9.9999999999999986E+01
         MTS  2
         &COORD
               3.2509888204914633E-01    1.1755931915233016E+00   -8.6098366239969302E+00    4.7049781239149748E+00
         &END COORD
         &VELOCITY
               8.0173067619594788E-06   -2.0506425308982256E-04    4.1064759688753082E-04   -1.6620555457979582E-04
         &END VELOCITY
         &MASS
               7.0145132684705392E+07    1.6237299232570693E+04    1.6237299232570693E+04    1.6237299232570693E+04
         &END MASS
         &FORCE
               1.1958361326451729E-09    2.1916752348025522E-07   -1.6458665954818268E-08    1.1012143497939895E-07
         &END FORCE
       &END NOSE
     &END THERMOSTAT
     &AVERAGES  T
       &RESTART_AVERAGES
         ITIMES_START  1
         AVECPU     2.4568839629455638E+01
         AVEHUGONIOT     0.0000000000000000E+00
         AVETEMP_BARO     0.0000000000000000E+00
         AVEPOT    -8.4857701812374889E+03
         AVEKIN     2.0539506026338028E+00
         AVETEMP     3.0027107794293374E+02
         AVEKIN_QM     0.0000000000000000E+00
         AVETEMP_QM     0.0000000000000000E+00
         AVEVOL     2.2086622704880920E+05
         AVECELL_A     4.9287836997924984E+01
         AVECELL_B     4.7426456757032106E+01
         AVECELL_C     9.4486306644279694E+01
         AVEALPHA     9.0000000000000000E+01
         AVEBETA     9.0000000000000000E+01
         AVEGAMMA     9.0000000000000000E+01
         AVE_ECONS     4.7175923590775177E+01
         AVE_PRESS     0.0000000000000000E+00
         AVE_PXX     0.0000000000000000E+00
       &END RESTART_AVERAGES
     &END AVERAGES
     &PRINT
       &TEMP_KIND  SILENT
       &END TEMP_KIND
     &END PRINT
   &END MD
   &FREE_ENERGY
     &METADYN
       MIN_DISP    -1.0000000000000000E+00
       OLD_HILL_NUMBER  0
       OLD_HILL_STEP  0
       DO_HILLS  F
       STEP_START_VAL  40950
       NHILLS_START_VAL  0
       &METAVAR
         SCALE     1.0000000000000000E+00
         COLVAR  1
       &END METAVAR
       &PRINT
         &COLVAR  SILENT
           COMMON_ITERATION_LEVELS  3
           &EACH
             MD  1
           &END EACH
         &END COLVAR
       &END PRINT
     &END METADYN
   &END FREE_ENERGY
   &CONSTRAINT
     &COLLECTIVE
       COLVAR  1
       INTERMOLECULAR  T
       &RESTRAINT
         K     4.4625385281452931E-04
       &END RESTRAINT
     &END COLLECTIVE
     &COLVAR_RESTART
           2.3843910405022758E+01
     &END COLVAR_RESTART
   &END CONSTRAINT
   &PRINT
     &TRAJECTORY  SILENT
       &EACH
         MD  1
       &END EACH
     &END TRAJECTORY
     &VELOCITIES  SILENT
       &EACH
         MD  1
       &END EACH
     &END VELOCITIES
     &FORCES  SILENT
       UNIT eV*angstrom^-1
       &EACH
         MD  1
       &END EACH
     &END FORCES
     &RESTART  SILENT
       &EACH
         MD  1
       &END EACH
     &END RESTART
     &RESTART_HISTORY  SILENT
       &EACH
         MD  100
       &END EACH
     &END RESTART_HISTORY
   &END PRINT
 &END MOTION
 &FORCE_EVAL
   METHOD  QS
   &DFT
     BASIS_SET_FILE_NAME /users/gtocci/scratch_daint_3000/data_cp2k//BASIS_MOLOPT
     POTENTIAL_FILE_NAME /users/gtocci/scratch_daint_3000/data_cp2k//GTH_POTENTIALS
     WFN_RESTART_FILE_NAME ./BNS-RESTART.wfn
     CHARGE  -1
     &SCF
       MAX_SCF  10
       EPS_SCF     9.9999999999999995E-07
       SCF_GUESS  RESTART
       &OT  T
         MINIMIZER  DIIS
         PRECONDITIONER  FULL_KINETIC
       &END OT
       &OUTER_SCF  T
         EPS_SCF     9.9999999999999995E-07
         MAX_SCF  30
       &END OUTER_SCF
       &PRINT
         &RESTART  SILENT
           ADD_LAST  NUMERIC
           &EACH
             QS_SCF  50
           &END EACH
         &END RESTART
       &END PRINT
     &END SCF
     &QS
       MAP_CONSISTENT  T
       EXTRAPOLATION  ASPC
       EXTRAPOLATION_ORDER  4
     &END QS
     &MGRID
       NGRIDS  5
       CUTOFF     4.6000000000000000E+02
     &END MGRID
     &XC
       DENSITY_CUTOFF     1.0000000000000000E-10
       GRADIENT_CUTOFF     1.0000000000000000E-10
       TAU_CUTOFF     1.0000000000000000E-10
       &XC_GRID
         XC_DERIV  SPLINE2_SMOOTH
       &END XC_GRID
       &XC_FUNCTIONAL  NO_SHORTCUT
         &LIBXC  T
           FUNCTIONAL XC_GGA_X_OPTB88_VDW
         &END LIBXC
         &VWN  T
         &END VWN
       &END XC_FUNCTIONAL
       &VDW_POTENTIAL
         POTENTIAL_TYPE  NON_LOCAL
         &NON_LOCAL
           TYPE  DRSLL
           VERBOSE_OUTPUT  T
           KERNEL_FILE_NAME /users/gtocci/scratch_daint_3000/data_cp2k//vdW_kernel_table.dat
           CUTOFF     3.6000000000000000E+02
         &END NON_LOCAL
       &END VDW_POTENTIAL
     &END XC
     &REAL_TIME_PROPAGATION
       INITIAL_WFN  SCF_WFN
     &END REAL_TIME_PROPAGATION
     &PRINT
       &MULLIKEN  SILENT
         FILENAME =BNS.mulliken
       &END MULLIKEN
     &END PRINT
   &END DFT
   &SUBSYS
     &CELL
       A     2.6082000000000019E+01    0.0000000000000000E+00    0.0000000000000000E+00
       B     0.0000000000000000E+00    2.5097000000000001E+01    0.0000000000000000E+00
       C     0.0000000000000000E+00    0.0000000000000000E+00    5.0000000000000028E+01
       MULTIPLE_UNIT_CELL  1 1 1
     &END CELL
     &COORD
B   -1.2040870264817240E+01    1.4151340481431498E+01   -3.0044729465773422E+01
B   -9.9424222163284401E+00    1.5357061044859588E+01   -2.9904585704497539E+01
B   -1.2059957339619936E+01    1.6606422716473521E+01   -2.9953095195824591E+01
B   -9.9310743707414009E+00    1.7837185606960645E+01   -2.9704402433327484E+01
B   -1.2077971803671028E+01    1.9126299466455478E+01   -2.9827142888483813E+01
B   -9.9045887889714734E+00    2.0405315902935623E+01   -2.9729307885545150E+01
B   -1.2073828689408158E+01    2.1597815382065683E+01   -2.9970886954472327E+01
B   -9.8573615022903720E+00    2.2921358450343767E+01   -2.9932209016386786E+01
B   -1.2103321212523378E+01    2.4125691502672854E+01   -3.0020132217782173E+01
B   -9.8994146019709301E+00    2.5389022704309063E+01   -3.0092585310355389E+01
B   -7.6961209971908833E+00    1.4099085318484294E+01   -2.9795724574698884E+01
B   -5.4839187547136516E+00    1.5337258315107965E+01   -2.9639543604530104E+01
B   -7.7505771910359931E+00    1.6574188396606747E+01   -2.9664349761009809E+01
B   -5.5403545445606870E+00    1.7838909429617907E+01   -2.9644350715511692E+01
B   -7.7311418107502021E+00    1.9068554404866244E+01   -2.9752991931973245E+01
B   -5.5369055393815625E+00    2.0330434941940709E+01   -2.9800544081853651E+01
B   -7.7218895302687329E+00    2.1608481652152708E+01   -2.9869584703130965E+01
B   -5.6086856429822696E+00    2.2871088035308350E+01   -2.9975550246465680E+01
B   -7.6761819057459375E+00    2.4175722278600009E+01   -2.9992960576956808E+01
B   -5.5344567512819243E+00    2.5428624579276061E+01   -3.0046256147284254E+01
B   -3.3330133856112298E+00    1.4107722754481141E+01   -2.9684259454546233E+01
B   -1.2070261562779869E+00    1.5322882186471501E+01   -2.9796140478019620E+01
B   -3.3072604309687548E+00    1.6585136402385750E+01   -2.9668098426050101E+01
B   -1.1503453632659362E+00    1.7849321534638538E+01   -2.9819636425846134E+01
B   -3.3395868378702680E+00    1.9032231780781931E+01   -2.9679399595911015E+01
B   -1.2079668724163086E+00    2.0373613785862382E+01   -2.9930471501727823E+01
B   -3.4145658638916312E+00    2.1658464937199383E+01   -2.9885133829540536E+01
B   -1.2322644154288467E+00    2.2927296133602997E+01   -3.0118839130599802E+01
B   -3.4307883535479622E+00    2.4118491747895398E+01   -2.9818983020483053E+01
B   -1.2282123048569593E+00    2.5338504804458438E+01   -2.9895991652455947E+01
N   -1.0614865923869333E+01    1.4089483445933562E+01   -2.9906220263153742E+01
N   -8.4491894400169869E+00    1.5364399054191683E+01   -2.9797596462323124E+01
N   -1.0622873669263528E+01    1.6594136504449558E+01   -2.9829123182935508E+01
N   -8.4720949633310294E+00    1.7826072140204452E+01   -2.9668522405586966E+01
N   -1.0631806284232340E+01    1.9131203932949123E+01   -2.9620479447332077E+01
N   -8.4201242713835054E+00    2.0329842981698821E+01   -2.9810550408795415E+01
N   -1.0598099227369286E+01    2.1659025285147763E+01   -2.9837687150155489E+01
N   -8.3995546457163250E+00    2.2926550194433212E+01   -2.9984868817726031E+01
N   -1.0649399975195088E+01    2.4105242239200642E+01   -2.9981706563540094E+01
N   -8.4501455425212821E+00    2.5390864697078612E+01   -3.0007517233887018E+01
N   -6.2472186164836874E+00    1.4118931005883141E+01   -2.9867164961876572E+01
N   -4.0100994549566726E+00    1.5310606583197249E+01   -2.9599683873135561E+01
N   -6.2768029636210789E+00    1.6580189827112900E+01   -2.9529436386440494E+01
N   -4.0981963809825510E+00    1.7807220281021792E+01   -2.9770698651910429E+01
N   -6.2733229322886457E+00    1.9061127704723202E+01   -2.9726536572568371E+01
N   -4.0724789345013344E+00    2.0351687091695727E+01   -2.9695560682771912E+01
N   -6.2778965453508091E+00    2.1628912724430521E+01   -2.9815282974045928E+01
N   -4.1576206379387752E+00    2.2893659534844858E+01   -2.9926459806054837E+01
N   -6.2545608569065765E+00    2.4155462955061417E+01   -3.0047485146030457E+01
N   -4.0922364094695425E+00    2.5412869404892540E+01   -2.9873748998538268E+01
N   -1.8990944190673265E+00    1.4072803988126593E+01   -2.9820990507534830E+01
N    2.2661156224315829E-01    1.5313224590502982E+01   -2.9856951686070790E+01
N   -1.8575751985152718E+00    1.6607494215867153E+01   -2.9650006721844672E+01
N    2.5392203386396833E-01    1.7808321478004963E+01   -3.0033987459239675E+01
N   -1.9110876596171076E+00    1.9111956860141436E+01   -2.9729834194041956E+01
N    1.6553657428327820E-01    2.0361011989825002E+01   -3.0218033386803604E+01
N   -1.9452309737997022E+00    2.1650316249408657E+01   -2.9957709513058326E+01
N    2.2782046922864652E-01    2.2883521124165686E+01   -3.0181666280735755E+01
N   -2.0020725017647982E+00    2.4136229000893916E+01   -2.9922811644033249E+01
N    2.3932249408275461E-01    2.5375147056338903E+01   -2.9979270220102400E+01
B   -1.1999294796430188E+01    2.6579632267306422E+01   -3.0210353039647408E+01
B   -9.7933000764193778E+00    2.7918875248949064E+01   -3.0322449101248182E+01
B   -1.1962225598149253E+01    2.9139692321225173E+01   -3.0125421279813004E+01
B   -9.8675067687594797E+00    3.0457047424293755E+01   -3.0191278746671451E+01
B   -1.2065411030160005E+01    3.1668130139648511E+01   -3.0032287314138120E+01
B   -9.8637127525704784E+00    3.2931202819615869E+01   -3.0140423973800871E+01
B   -1.1982372596351263E+01    3.4179734193923913E+01   -3.0057211350473292E+01
B   -9.8370887826956057E+00    3.5430594022443998E+01   -3.0020872785805022E+01
B   -1.2064767798745404E+01    3.6700632356571553E+01   -2.9891521567451122E+01
B   -9.9157615893971478E+00    3.7930624052838276E+01   -2.9758742294345570E+01
B   -7.7079072419794805E+00    2.6631363869321337E+01   -3.0282801826740165E+01
B   -5.5041545336826330E+00    2.7943132771910847E+01   -3.0020061846333597E+01
B   -7.6554138743967970E+00    2.9228561870799403E+01   -3.0290561372475310E+01
B   -5.4912251332242938E+00    3.0473155965707718E+01   -2.9893384902584465E+01
B   -7.6421669156098044E+00    3.1673156710919638E+01   -3.0100980279281909E+01
B   -5.5000322435431057E+00    3.2978234237582711E+01   -2.9861413891434445E+01
B   -7.6246616564096046E+00    3.4161723522290245E+01   -3.0114756642812299E+01
B   -5.4798376677643095E+00    3.5507028786355690E+01   -2.9835014722808644E+01
B   -7.6544779825495004E+00    3.6670294863974270E+01   -2.9919999571735360E+01
B   -5.5074847829373494E+00    3.7932387979490628E+01   -2.9786432745420132E+01
B   -3.3601035234228736E+00    2.6667559886751420E+01   -2.9761947922395414E+01
B   -1.1182866368598154E+00    2.7834421032686425E+01   -2.9831156892930441E+01
B   -3.3028095000180526E+00    2.9152383262343278E+01   -2.9849083188599369E+01
B   -1.1349511069153291E+00    3.0400677467122662E+01   -2.9652733790052913E+01
B   -3.3446599008695577E+00    3.1607928402427575E+01   -2.9686984797211355E+01
B   -1.1562774877190500E+00    3.2892909446254762E+01   -2.9502424943435148E+01
B   -3.3157943909727403E+00    3.4184502978077241E+01   -2.9639967749557240E+01
B   -1.1489908611207138E+00    3.5443265264339217E+01   -2.9640770197299794E+01
B   -3.3121258066106862E+00    3.6704589973749350E+01   -2.9817943932139912E+01
B   -1.1607364803120601E+00    3.7961202124843155E+01   -2.9833689172398174E+01
N   -1.0562728568587454E+01    2.6636213837491180E+01   -3.0314042262287195E+01
N   -8.3584688049730715E+00    2.7920267596361132E+01   -3.0443676399996455E+01
N   -1.0517333967159033E+01    2.9144552226273362E+01   -3.0113934409029564E+01
N   -8.4054244924742587E+00    3.0422391809288403E+01   -3.0217197356050733E+01
N   -1.0610935052324097E+01    3.1678903833515776E+01   -3.0174888528652737E+01
N   -8.3757663508132616E+00    3.2914672950588773E+01   -3.0227854134624984E+01
N   -1.0558595309133141E+01    3.4179073911485034E+01   -3.0043713199197587E+01
N   -8.3416029658557367E+00    3.5423785167847484E+01   -3.0070485390645302E+01
N   -1.0592071051682650E+01    3.6646078206150463E+01   -2.9934683373310754E+01
N   -8.4192460800052533E+00    3.7922507460135549E+01   -2.9758014825940791E+01
N   -6.2548586428954067E+00    2.6656010129365242E+01   -3.0187525818745417E+01
N   -4.0044009982965321E+00    2.7879300034653060E+01   -2.9776668200855298E+01
N   -6.1992636544956810E+00    2.9209638640187642E+01   -3.0106915906234420E+01
N   -4.0224036714857467E+00    3.0388520389003745E+01   -2.9741655081288521E+01
N   -6.1996092119168598E+00    3.1695962884800249E+01   -3.0004389285518489E+01
N   -4.0316998043629368E+00    3.2894264495540440E+01   -2.9671171242025196E+01
N   -6.2285776678018330E+00    3.4225341546999843E+01   -2.9959821672652673E+01
N   -4.0421746196781285E+00    3.5446554441262194E+01   -2.9681995864772659E+01
N   -6.2295316182420795E+00    3.6685477330364513E+01   -2.9818253879427033E+01
N   -4.0416774779124616E+00    3.7943423143818499E+01   -2.9854027028798633E+01
N   -1.9237159134768680E+00    2.6619907040370613E+01   -2.9886432386328163E+01
N    2.9057079790938406E-01    2.7919164793068980E+01   -2.9911723279336002E+01
N   -1.8674903603014654E+00    2.9114155057580174E+01   -2.9795712121526577E+01
N    3.0581888083482406E-01    3.0413659324675113E+01   -2.9571308072477869E+01
N   -1.9087781274220967E+00    3.1639966954312715E+01   -2.9580423366708164E+01
N    3.0490747918615224E-01    3.2905396270422735E+01   -2.9343546572207661E+01
N   -1.8723334303121797E+00    3.4165487300515132E+01   -2.9518270425471357E+01
N    3.2693963510867802E-01    3.5407410234074000E+01   -2.9605836310905936E+01
N   -1.8486852271252341E+00    3.6691500394008820E+01   -2.9878121901845191E+01
N    3.1115026946222235E-01    3.7947606999200481E+01   -2.9866890961271327E+01
B    9.5066936885856601E-01    1.4088899389458994E+01   -2.9920139457762129E+01
B    3.1890610373174426E+00    1.5332973655358394E+01   -3.0097312005094651E+01
B    1.0024088572742018E+00    1.6570147991451599E+01   -2.9981344499910460E+01
B    3.0971442093100614E+00    1.7852332980005546E+01   -3.0165509242674869E+01
B    9.1175205607183751E-01    1.9095711694679714E+01   -3.0097768048668257E+01
B    3.1863823739847272E+00    2.0390641355709576E+01   -3.0227841707166370E+01
B    9.4493633458790571E-01    2.1651803271919569E+01   -3.0242448315913492E+01
B    3.1466900973194498E+00    2.2921200555855918E+01   -3.0257329567291869E+01
B    9.4940166450008356E-01    2.4132177535852396E+01   -3.0185970061794443E+01
B    3.1797060344305890E+00    2.5425687356790846E+01   -3.0023755554086694E+01
B    5.3708214170896555E+00    1.4167405003397509E+01   -3.0187470106623003E+01
B    7.5977451493555748E+00    1.5364849830870481E+01   -3.0329483354801887E+01
B    5.3778249524401902E+00    1.6618573080765806E+01   -3.0356346985913113E+01
B    7.5491092403172182E+00    1.7897213990992782E+01   -3.0471314240532706E+01
B    5.2731780174449376E+00    1.9085995976679989E+01   -3.0249777717410396E+01
B    7.5003855573917084E+00    2.0396268008528001E+01   -3.0337810026025359E+01
B    5.3077695280975377E+00    2.1660557913538156E+01   -3.0233556572000193E+01
B    7.4551433306996016E+00    2.2866007840909852E+01   -3.0202813780697792E+01
B    5.2954503957437264E+00    2.4159789203209364E+01   -3.0205373705799921E+01
B    7.5497875151406344E+00    2.5356745067138338E+01   -3.0099284888001726E+01
B    9.7552828171787915E+00    1.4152976088165369E+01   -3.0285205718738357E+01
B    1.1913603622895225E+01    1.5391790323365523E+01   -3.0189779340230846E+01
B    9.7162920347670916E+00    1.6621297663327955E+01   -3.0433060569724866E+01
B    1.1906615665007347E+01    1.7826622232109251E+01   -3.0168398231749958E+01
B    9.6776005658246582E+00    1.9131353079684065E+01   -3.0361677022831081E+01
B    1.1801546922343780E+01    2.0345782801079132E+01   -2.9996327580422925E+01
B    9.6484472590783898E+00    2.1633367576052436E+01   -3.0133262734323630E+01
B    1.1841542647680438E+01    2.2894796443036292E+01   -3.0005529510808554E+01
B    9.6369089547472804E+00    2.4122760240541215E+01   -3.0069489543133574E+01
B    1.1816479131651791E+01    2.5401826457776227E+01   -3.0035353916027063E+01
N    2.4162369388251390E+00    1.4103493595325725E+01   -3.0051007439914006E+01
N    4.6446441960954008E+00    1.5392209206812181E+01   -3.0248018112175004E+01
N    2.4081947132940424E+00    1.6568172011357838E+01   -3.0168488113661272E+01
N    4.5632423581854358E+00    1.7827904870285050E+01   -3.0270178296456219E+01
N    2.4243089339559414E+00    1.9142268037804808E+01   -3.0099018468250978E+01
N    4.6308404590139398E+00    2.0357913468631772E+01   -3.0149075887978263E+01
N    2.4420740089057018E+00    2.1658391357190865E+01   -3.0346783853100224E+01
N    4.5923600879002091E+00    2.2911207847928694E+01   -3.0321882650716034E+01
N    2.4242973316925758E+00    2.4187289073668286E+01   -3.0131299613242707E+01
N    4.5729693092887214E+00    2.5429138102591150E+01   -2.9948308315089612E+01
N    6.8412461647812002E+00    1.4125572206547121E+01   -3.0172186607581263E+01
N    9.0362932863140983E+00    1.5351961747232648E+01   -3.0365356669202185E+01
N    6.8325118608770641E+00    1.6622130127171406E+01   -3.0494560145698667E+01
N    9.0280699418362538E+00    1.7878114996057032E+01   -3.0534545147585465E+01
N    6.7945961963878947E+00    1.9110644275664562E+01   -3.0316847970413068E+01
N    8.9603932950731284E+00    2.0410948164233570E+01   -3.0347725747605942E+01
N    6.7882549827477714E+00    2.1607030470215157E+01   -3.0284714691598097E+01
N    8.9145188934462478E+00    2.2922810568207055E+01   -3.0173916325918320E+01
N    6.7425837634472305E+00    2.4122694012871403E+01   -3.0062322357285350E+01
N    8.9253783633123582E+00    2.5364197076111441E+01   -3.0148411844483594E+01
N    1.1188624168553813E+01    1.4104959454053230E+01   -3.0222012255307746E+01
N    1.3370050614155062E+01    1.5378337831731189E+01   -3.0114431071090010E+01
N    1.1178908745786897E+01    1.6597655801005423E+01   -3.0411721474528935E+01
N    1.3308802950898016E+01    1.7867214659320339E+01   -2.9826901689486210E+01
N    1.1122378033612266E+01    1.9078809431039247E+01   -3.0155639814167337E+01
N    1.3263075717396550E+01    2.0366309552924672E+01   -3.0027265764625813E+01
N    1.1084194475852975E+01    2.1635889300235025E+01   -2.9900543786057916E+01
N    1.3265771526521124E+01    2.2874741375977553E+01   -3.0058482550147485E+01
N    1.1128203123322027E+01    2.4131208318834922E+01   -3.0049797156294538E+01
N    1.3303673581514836E+01    2.5376155299119358E+01   -3.0104309935427960E+01
B    9.5977760194225958E-01    2.6641871789069924E+01   -2.9880420181908875E+01
B    3.1750079790821948E+00    2.7999124701747558E+01   -2.9887103248804344E+01
B    9.7183631369477264E-01    2.9180619478811533E+01   -2.9862001366185627E+01
B    3.1659306555181179E+00    3.0466781870365281E+01   -2.9776107561116344E+01
B    1.0439183618024011E+00    3.1682676804619657E+01   -2.9518704679626453E+01
B    3.2680686399100032E+00    3.3008823080297027E+01   -2.9654811249714687E+01
B    1.0187177882663851E+00    3.4170742749915760E+01   -2.9495426582972943E+01
B    3.1876248961201461E+00    3.5476133414749000E+01   -2.9741700764613849E+01
B    1.0162223271574713E+00    3.6656941617425844E+01   -2.9875146478342323E+01
B    3.2079725559913235E+00    3.7960743936905409E+01   -2.9968940603614474E+01
B    5.3657114263470289E+00    2.6689617691952343E+01   -2.9947991143780300E+01
B    7.5665573951502081E+00    2.7843570790282122E+01   -3.0075106443526554E+01
B    5.3698861350214955E+00    2.9151380494813644E+01   -2.9913145647150174E+01
B    7.5998003214628573E+00    3.0407496700195424E+01   -2.9856537024508551E+01
B    5.3585840346590992E+00    3.1670289948109879E+01   -2.9811239285737503E+01
B    7.5379743079653370E+00    3.2887829846409304E+01   -2.9959887013213908E+01
B    5.4135739687091240E+00    3.4247756359394288E+01   -2.9706461097711461E+01
B    7.5419418708459514E+00    3.5407157952775606E+01   -3.0071745576436058E+01
B    5.4029837497170128E+00    3.6761419066646376E+01   -2.9809219296620608E+01
B    7.5703452789520602E+00    3.8001589356556387E+01   -3.0127949138423254E+01
B    9.6828353234586970E+00    2.6603872677136643E+01   -3.0040466171418547E+01
B    1.1947401539570455E+01    2.7924833365371263E+01   -2.9984327934513370E+01
B    9.7147435805149058E+00    2.9047858865091118E+01   -2.9982344024304130E+01
B    1.1842290820531170E+01    3.0407252750560318E+01   -3.0038329097723778E+01
B    9.7525455922303248E+00    3.1612932529932014E+01   -2.9987005795212514E+01
B    1.1867051739021250E+01    3.2898831848269573E+01   -3.0184437282906732E+01
B    9.7071029214625852E+00    3.4159484336073859E+01   -3.0039733876063266E+01
B    1.1872826405773971E+01    3.5408634257859710E+01   -3.0118504299858216E+01
B    9.7004444994056538E+00    3.6666763417921480E+01   -3.0200023730625887E+01
B    1.1877699806383532E+01    3.7993418599729146E+01   -3.0059460819995220E+01
N    2.4294854591151558E+00    2.6718000132168783E+01   -2.9855870762601533E+01
N    4.5983422384127266E+00    2.7916929486565678E+01   -2.9981800316842829E+01
N    2.4493866628312158E+00    2.9231578148013135E+01   -2.9872136328731848E+01
N    4.5871700972416010E+00    3.0452998246505466E+01   -2.9892428033566752E+01
N    2.5165532626235798E+00    3.1778558103919220E+01   -2.9632830131193725E+01
N    4.6772168630673274E+00    3.2927452978602680E+01   -2.9696846299654624E+01
N    2.4853873956300458E+00    3.4195876434275171E+01   -2.9651375580224439E+01
N    4.6743814366424390E+00    3.5472794797119761E+01   -2.9706925813615793E+01
N    2.4839362949843848E+00    3.6711877898490222E+01   -2.9909168220135971E+01
N    4.6679218807567251E+00    3.7981312305258989E+01   -3.0099094267132322E+01
N    6.8275245796081618E+00    2.6609480995689356E+01   -3.0133528133451211E+01
N    8.9757797331013833E+00    2.7837659156870469E+01   -3.0124140074417149E+01
N    6.8505207728601549E+00    2.9110024723095453E+01   -2.9939815435301330E+01
N    9.0105890093891947E+00    3.0370484330355431E+01   -2.9994133685469222E+01
N    6.7778329171847638E+00    3.1694988110043507E+01   -2.9877002773524278E+01
N    9.0049038786047557E+00    3.2901097373974906E+01   -2.9942371882864443E+01
N    6.8375353942908861E+00    3.4173757056342048E+01   -2.9925944829268701E+01
N    8.9949788513518563E+00    3.5437665723437227E+01   -3.0038670690288338E+01
N    6.8368977197626748E+00    3.6697076431905764E+01   -2.9986314954346849E+01
N    9.0094266056221830E+00    3.7963700966558378E+01   -3.0352765082312466E+01
N    1.1161267263043381E+01    2.6638807397461175E+01   -2.9997300539611889E+01
N    1.3348075756441842E+01    2.7859960620298970E+01   -3.0079970489155212E+01
N    1.1177138615586788E+01    2.9142575653336301E+01   -2.9958982308017944E+01
N    1.3314909922151275E+01    3.0373931205211868E+01   -2.9951804975031095E+01
N    1.1195090068949693E+01    3.1658906251842339E+01   -3.0153889402573519E+01
N    1.3367722689569007E+01    3.2934659522901931E+01   -3.0178607597903270E+01
N    1.1166472571481584E+01    3.4135929982791254E+01   -3.0221965511249621E+01
N    1.3330999556486654E+01    3.5411707977478734E+01   -2.9961242888433237E+01
N    1.1145827633672742E+01    3.6715092524879431E+01   -3.0139768094072906E+01
N    1.3334772006445682E+01    3.7992063044039419E+01   -2.9928092195381659E+01
O   -8.8707547868836141E+00    6.0168764994582993E+01   -2.1432269739316670E+01
H   -9.3739613027446769E+00    6.0708588771910570E+01   -2.2100664474663354E+01
H   -9.5575930393570925E+00    5.9628301209121496E+01   -2.0963912082704852E+01
O    3.5537814652794914E+01    8.7743946597161138E+00   -1.1229873669683590E+01
H    3.5019218346831281E+01    8.0206865892426347E+00   -1.1511040185864633E+01
H    3.4916276984869576E+01    9.5560949190326347E+00   -1.1194597624300373E+01
O    2.2758392131623435E+01    1.5742436620160397E+01   -1.3356194504033212E+01
H    2.3589832084206442E+01    1.6005940419411530E+01   -1.3896395813247500E+01
H    2.2327505324823051E+01    1.4967071808584874E+01   -1.3759023019559397E+01
O   -1.0596054223557687E+01    8.2990768337916236E+00   -2.3642112770915215E+01
H   -1.1076180787359629E+01    7.6981621278579784E+00   -2.4277442754733489E+01
H   -1.1273569612746190E+01    8.9880602857236322E+00   -2.3338171508360112E+01
O    4.2465183989499046E+01    2.2413975826686656E+01   -2.0257008169816419E+01
H    4.2977585986120509E+01    2.3098267997047262E+01   -1.9796783611605122E+01
H    4.3052950999877687E+01    2.1822003911418488E+01   -2.0743883063243398E+01
O    3.9730652340227991E+01   -9.2368023798217003E+00   -1.4187182947047733E+01
H    3.9229177428397549E+01   -8.8403431830546939E+00   -1.4926069065277197E+01
H    3.9144820152789691E+01   -9.8440897957579381E+00   -1.3609513127439534E+01
O    3.2872186513089630E+01    4.3667170718717244E+01   -2.7038588753930558E+01
H    3.2894796687587231E+01    4.2653677389263457E+01   -2.7201284797934502E+01
H    3.3299630691432021E+01    4.4106797732845337E+01   -2.7751436045303048E+01
O   -8.5928912084085791E+00    4.2591026379759406E+01   -1.2786414813972190E+01
H   -7.7410407905768972E+00    4.3066185061532771E+01   -1.2631412241095671E+01
H   -8.3825542936925626E+00    4.1978370461217317E+01   -1.3596840724609288E+01
O   -4.9812489700387088E+00   -1.3388771204783517E+01   -1.7139396508859779E+01
H   -4.3805324255947697E+00   -1.2979417999365394E+01   -1.6442854261809433E+01
H   -5.7041305983999173E+00   -1.2678393435471060E+01   -1.7256230981701460E+01
O    2.1962811274983636E+01    9.5106813804362815E+01   -2.6661734965939807E+01
H    2.1938443479249589E+01    9.4755498016196640E+01   -2.5748052670350770E+01
H    2.2070237274452410E+01    9.6063480788371095E+01   -2.6538583919684243E+01
O   -1.4597371300730417E+01   -2.5386186518143880E+01   -2.0698478861612426E+01
H   -1.4023301680920140E+01   -2.5878935037232871E+01   -2.0027774157394479E+01
H   -1.4069627060609635E+01   -2.5135837316054687E+01   -2.1500971007769508E+01
O   -3.6946200465780784E+01    6.8512559809236265E+01   -1.6116875042539395E+01
H   -3.6956033198700410E+01    6.8691738551936879E+01   -1.5091162910645634E+01
H   -3.6464656710023213E+01    6.9152505520268875E+01   -1.6710698656252259E+01
O   -7.3358057482620040E+00    4.5832362603227487E+01   -1.6863058617145438E+01
H   -6.7031743542172864E+00    4.6571432262769349E+01   -1.6882821601937508E+01
H   -6.8836565856694927E+00    4.4924088933443883E+01   -1.6857802516189093E+01
O    2.2491371683769952E+01   -1.1723324010612865E+01   -2.4580322251288191E+01
H    2.2911363857721554E+01   -1.2288979828887220E+01   -2.5337780805264988E+01
H    2.2030680209506478E+01   -1.2377309603938988E+01   -2.4008866151609240E+01
O    8.3064066371415741E+00    2.3251141477339281E+01   -1.9052282956422971E+01
H    7.7234556176560094E+00    2.3798726504465943E+01   -1.8466297351152424E+01
H    7.5244786964834027E+00    2.2652282275621097E+01   -1.9329835746161145E+01
O    1.3687495944506496E+01   -4.1850037119021799E+01   -2.7127031965919748E+01
H    1.4423132250121073E+01   -4.1144910734006572E+01   -2.7146506693566774E+01
H    1.2947810141612457E+01   -4.1653541904539829E+01   -2.7799359790532158E+01
O    1.3827796952813081E+01    2.1520393788480082E+01   -2.0705128717170787E+01
H    1.4769953887877188E+01    2.1687164503229873E+01   -2.0486301448958475E+01
H    1.3616994732460306E+01    2.0641640109296567E+01   -2.0184765700556106E+01
O   -2.6498667232610229E+00    2.9605383568969600E+01   -2.6852827038818265E+01
H   -2.0877495360749463E+00    2.9189601713435135E+01   -2.7541764683514860E+01
H   -3.3202947926416524E+00    2.8934256836372558E+01   -2.6595199938599070E+01
O    1.9535495373808416E+01   -5.6642791183644778E+00   -1.2699040836356387E+01