 # Version information for this restart file 
 # current date 2020-04-19 00:42:23.017
 # current working dir /scratch/snx3000/gtocci/gtocci/MEMBRANES/AIMD_US_IONS_GRA/us_aimd_new/us_16
 # Program compiled at                              Fri Nov 22 15:19:42 CET 2019
 # Program compiled on                                                  daint102
 # Program compiled for                                   CRAY_XC50-gfortran_gpu
 # Source code revision number                                       git:a698b45
 &GLOBAL
   PRINT_LEVEL  LOW
   PROJECT_NAME GRAS
   RUN_TYPE  MD
   WALLTIME 86400
 &END GLOBAL
 &MOTION
   &MD
     ENSEMBLE  NVT
     STEPS  2000
     TIMESTEP     9.9999999999999989E-01
     STEP_START_VAL  80362
     TIME_START_VAL     8.0361999999929758E+04
     ECONS_START_VAL    -8.3039515674859776E+03
     TEMPERATURE     3.0000000000000000E+02
     TEMP_KIND  T
     &BAROSTAT
       PRESSURE     1.0000000000000000E+00
       TIMECON     9.9999999999999986E+01
       VIRIAL  Z
     &END BAROSTAT
     &THERMOSTAT
       TYPE  NOSE
       REGION  GLOBAL
       &NOSE
         LENGTH  4
         TIMECON     9.9999999999999986E+01
         MTS  2
         &COORD
               1.6611239679749079E-01    2.7680700882403958E+01   -6.6369155014213277E+01    5.0076715069649083E+01
         &END COORD
         &VELOCITY
              -5.7950299604887368E-07   -1.2355185828448137E-04   -3.1246790998106210E-04   -2.1024535197369649E-04
         &END VELOCITY
         &MASS
               7.0145132684705392E+07    1.6237299232570693E+04    1.6237299232570693E+04    1.6237299232570693E+04
         &END MASS
         &FORCE
               1.2621334325404874E-09   -5.7059255369209109E-08   -4.3244952164556504E-08    3.9126180917828060E-08
         &END FORCE
       &END NOSE
     &END THERMOSTAT
     &AVERAGES  T
       &RESTART_AVERAGES
         ITIMES_START  1
         AVECPU     3.1287671431234546E+01
         AVEHUGONIOT     0.0000000000000000E+00
         AVETEMP_BARO     0.0000000000000000E+00
         AVEPOT    -8.3065527507528586E+03
         AVEKIN     2.0542398793224801E+00
         AVETEMP     3.0031336787094301E+02
         AVEKIN_QM     0.0000000000000000E+00
         AVETEMP_QM     0.0000000000000000E+00
         AVEVOL     2.1331414786626375E+05
         AVECELL_A     4.8437460238122028E+01
         AVECELL_B     4.6608961231947916E+01
         AVECELL_C     9.4486306644279907E+01
         AVEALPHA     9.0000000000000028E+01
         AVEBETA     9.0000000000000028E+01
         AVEGAMMA     9.0000000000000028E+01
         AVE_ECONS    -5.7876277076924965E-01
         AVE_PRESS     0.0000000000000000E+00
         AVE_PXX     0.0000000000000000E+00
       &END RESTART_AVERAGES
     &END AVERAGES
     &PRINT
       &TEMP_KIND  SILENT
       &END TEMP_KIND
     &END PRINT
   &END MD
   &FREE_ENERGY
     &METADYN
       MIN_DISP    -1.0000000000000000E+00
       OLD_HILL_NUMBER  0
       OLD_HILL_STEP  0
       DO_HILLS  F
       STEP_START_VAL  80362
       NHILLS_START_VAL  0
       &METAVAR
         SCALE     1.0000000000000000E+00
         COLVAR  1
       &END METAVAR
       &PRINT
         &COLVAR  SILENT
           COMMON_ITERATION_LEVELS  3
           &EACH
             MD  1
           &END EACH
         &END COLVAR
       &END PRINT
     &END METADYN
   &END FREE_ENERGY
   &CONSTRAINT
     &COLLECTIVE
       COLVAR  1
       INTERMOLECULAR  T
       &RESTRAINT
         K     4.4625385281452931E-04
       &END RESTRAINT
     &END COLLECTIVE
     &COLVAR_RESTART
           1.5117809063085145E+01
     &END COLVAR_RESTART
   &END CONSTRAINT
   &PRINT
     &TRAJECTORY  SILENT
       &EACH
         MD  1
       &END EACH
     &END TRAJECTORY
     &VELOCITIES  SILENT
       &EACH
         MD  1
       &END EACH
     &END VELOCITIES
     &FORCES  SILENT
       UNIT eV*angstrom^-1
       &EACH
         MD  1
       &END EACH
     &END FORCES
     &RESTART  SILENT
       &EACH
         MD  1
       &END EACH
     &END RESTART
     &RESTART_HISTORY  SILENT
       &EACH
         MD  100
       &END EACH
     &END RESTART_HISTORY
   &END PRINT
 &END MOTION
 &FORCE_EVAL
   METHOD  QS
   &DFT
     BASIS_SET_FILE_NAME /users/gtocci/scratch_daint_3000/data_cp2k//BASIS_MOLOPT
     POTENTIAL_FILE_NAME /users/gtocci/scratch_daint_3000/data_cp2k//GTH_POTENTIALS
     WFN_RESTART_FILE_NAME ./GRAS-RESTART.wfn
     CHARGE  -1
     &SCF
       MAX_SCF  10
       EPS_SCF     9.9999999999999995E-07
       SCF_GUESS  RESTART
       &OT  T
         MINIMIZER  DIIS
         PRECONDITIONER  FULL_KINETIC
       &END OT
       &OUTER_SCF  T
         EPS_SCF     9.9999999999999995E-07
         MAX_SCF  30
       &END OUTER_SCF
       &PRINT
         &RESTART  SILENT
           ADD_LAST  NUMERIC
           &EACH
             QS_SCF  50
           &END EACH
         &END RESTART
       &END PRINT
     &END SCF
     &QS
       MAP_CONSISTENT  T
       EXTRAPOLATION  ASPC
       EXTRAPOLATION_ORDER  4
     &END QS
     &MGRID
       NGRIDS  5
       CUTOFF     4.6000000000000000E+02
     &END MGRID
     &XC
       DENSITY_CUTOFF     1.0000000000000000E-10
       GRADIENT_CUTOFF     1.0000000000000000E-10
       TAU_CUTOFF     1.0000000000000000E-10
       &XC_GRID
         XC_DERIV  SPLINE2_SMOOTH
       &END XC_GRID
       &XC_FUNCTIONAL  NO_SHORTCUT
         &LIBXC  T
           FUNCTIONAL XC_GGA_X_OPTB88_VDW
         &END LIBXC
         &VWN  T
         &END VWN
       &END XC_FUNCTIONAL
       &VDW_POTENTIAL
         POTENTIAL_TYPE  NON_LOCAL
         &NON_LOCAL
           TYPE  DRSLL
           VERBOSE_OUTPUT  T
           KERNEL_FILE_NAME /users/gtocci/scratch_daint_3000/data_cp2k//vdW_kernel_table.dat
         &END NON_LOCAL
       &END VDW_POTENTIAL
     &END XC
     &REAL_TIME_PROPAGATION
       INITIAL_WFN  SCF_WFN
     &END REAL_TIME_PROPAGATION
     &PRINT
       &MULLIKEN  SILENT
         FILENAME =GRAS.mulliken
       &END MULLIKEN
     &END PRINT
   &END DFT
   &SUBSYS
     &CELL
       A     2.5632000000000001E+01    0.0000000000000000E+00    0.0000000000000000E+00
       B     0.0000000000000000E+00    2.4664400000000022E+01    0.0000000000000000E+00
       C     0.0000000000000000E+00    0.0000000000000000E+00    5.0000000000000028E+01
       MULTIPLE_UNIT_CELL  1 1 1
     &END CELL
     &COORD
C    1.9200246231142075E+00    3.0536022002037900E+01   -3.1577258516287992E+00
C    3.3290617170401098E+00    3.0545285939134441E+01   -3.3555493478331426E+00
C    4.0294617694949881E+00    3.1737939886236045E+01   -3.2743992451224893E+00
C    5.4408899404794990E+00    3.1791574155036209E+01   -3.3138799480464463E+00
C    1.9228984176221615E+00    3.2944677206755891E+01   -2.9379071276942477E+00
C    3.3230000457967903E+00    3.2946508744202134E+01   -3.0916779949677782E+00
C    4.0683537818216182E+00    3.4164329573167272E+01   -3.0284807580033872E+00
C    5.4960080910093696E+00    3.4231961515085878E+01   -3.1359808288764910E+00
C    1.9605728719366986E+00    3.5391458517303519E+01   -2.8323888545423102E+00
C    3.3621379965039999E+00    3.5377448748275022E+01   -2.9340573714496032E+00
C    4.0728586916738418E+00    3.6663951339926378E+01   -2.9232418399199673E+00
C    5.4999646205609993E+00    3.6693920905670339E+01   -3.0893303320096255E+00
C    1.9127718073465150E+00    3.7851919611256974E+01   -2.7750483599857683E+00
C    3.3479654747536700E+00    3.7879748229528275E+01   -2.7974763203627258E+00
C    4.0579931933598390E+00    3.9091284635255285E+01   -2.9494030032740386E+00
C    5.4579784966718732E+00    3.9109213284415183E+01   -3.0859368893580963E+00
C    1.9422654141994278E+00    4.0343109073091682E+01   -2.9335365995490208E+00
C    3.3446467756253480E+00    4.0348995504452873E+01   -2.9931394271419243E+00
C    4.0142075037202627E+00    2.9277886638246848E+01   -3.4380960300689889E+00
C    5.4293569464921152E+00    2.9279090995156434E+01   -3.4466208256668014E+00
C    6.1478797635825764E+00    3.0520323250741022E+01   -3.4384707147546432E+00
C    7.5608625441572492E+00    3.0466042030647902E+01   -3.4117077915971716E+00
C    8.2932705412409025E+00    3.1705795518447939E+01   -3.3628801457002955E+00
C    9.6950465810321766E+00    3.1731945438507676E+01   -3.3460938935045319E+00
C    6.1508918065370199E+00    3.3032612707753266E+01   -3.2501573212589583E+00
C    7.5805478028385878E+00    3.2942598115924000E+01   -3.2658606652633919E+00
C    8.3062081739926210E+00    3.4184044794485324E+01   -3.0839442489453734E+00
C    9.7346832200832463E+00    3.4202764288547378E+01   -3.0997000741630001E+00
C    6.1988283883829816E+00    3.5468802213645169E+01   -3.1781552236381621E+00
C    7.5977756896486488E+00    3.5434497051188288E+01   -3.0619237189411574E+00
C    8.3359035421005387E+00    3.6650406614751226E+01   -3.0106061539562203E+00
C    9.7790020479027078E+00    3.6685209441672860E+01   -3.0140977251239831E+00
C    6.2134943812018406E+00    3.7922625166169468E+01   -3.1241170072704154E+00
C    7.6379046976405407E+00    3.7886928041687099E+01   -3.0701747419406629E+00
C    8.3236050714629339E+00    3.9114044838571843E+01   -3.1367483543179300E+00
C    9.7826778534195480E+00    3.9155337570738730E+01   -3.1115352757246395E+00
C    6.1418421214721057E+00    4.0375088177055368E+01   -3.0937500138791569E+00
C    7.5930583584907803E+00    4.0390701028053364E+01   -3.2169548511192176E+00
C    8.2713361195424291E+00    2.9245925672014174E+01   -3.4300603143893769E+00
C    9.6571743102193999E+00    2.9275903892063869E+01   -3.4912050045526630E+00
C    1.0403717374936043E+01    3.0500185049385784E+01   -3.4082740587648788E+00
C    1.1822006640463890E+01    3.0517879417868549E+01   -3.4377329546145980E+00
C    1.2556556067209335E+01    3.1730608690085894E+01   -3.3811524169498730E+00
C    1.4005927592942408E+01    3.1667005676204838E+01   -3.3389438150760160E+00
C    1.0472469465722194E+01    3.2985864112532667E+01   -3.2296002558720729E+00
C    1.1888601410091914E+01    3.2990617111049716E+01   -3.2214103759768298E+00
C    1.2606503046723770E+01    3.4203406251765784E+01   -3.1083337792189387E+00
C    1.4033944042267381E+01    3.4185051701255254E+01   -3.1851249899722491E+00
C    1.0452703170993624E+01    3.5436327779096146E+01   -3.0705823937332464E+00
C    1.1855550907008189E+01    3.5463170756339139E+01   -3.0682458187607686E+00
C    1.2549577311061748E+01    3.6682255089337083E+01   -2.9933090198020635E+00
C    1.3981378627111487E+01    3.6646408679881006E+01   -2.9821742328512362E+00
C    1.0463237750589878E+01    3.7897308696448285E+01   -2.9990900239659073E+00
C    1.1880126978511555E+01    3.7954505686472693E+01   -2.9850699935003364E+00
C    1.2610756291027764E+01    3.9203109796465121E+01   -3.0844040977591942E+00
C    1.4005310335775418E+01    3.9149799702397488E+01   -3.0396157255420491E+00
C    1.0439763258772420E+01    4.0397795623674384E+01   -3.1261902554964669E+00
C    1.1869732530164555E+01    4.0412541237385987E+01   -3.1713858829774382E+00
C    1.2535483870704006E+01    2.9265045391877262E+01   -3.4625244575237155E+00
C    1.3959691291850083E+01    2.9256431248407836E+01   -3.4064971357842464E+00
C    1.9114017027608701E+00    4.2795828383172235E+01   -3.0568512377576909E+00
C    3.3139279713472658E+00    4.2806190037072959E+01   -2.9592961528285882E+00
C    4.0169349696946863E+00    4.4092876005068007E+01   -3.0157093139515041E+00
C    5.4582641139596939E+00    4.4082554514529335E+01   -3.0248750867006526E+00
C    1.8568915158391175E+00    4.5272975178743103E+01   -3.2077148566172502E+00
C    3.2880237838091375E+00    4.5285904675197649E+01   -3.1182200430054658E+00
C    3.9947284891355976E+00    4.6512456281367065E+01   -3.0406990034131764E+00
C    5.4233906831902541E+00    4.6534338357707483E+01   -2.9968282112174296E+00
C    1.8882625107324074E+00    4.7752993552204209E+01   -3.1597443713297082E+00
C    3.2924638187619042E+00    4.7729962569422966E+01   -3.0905314800286714E+00
C    4.0076674689909231E+00    4.8974106331455637E+01   -3.1713273727195026E+00
C    5.4078166210421177E+00    4.8991290194382159E+01   -3.1675229851117535E+00
C    1.9000203618584970E+00    5.0228977354573040E+01   -3.1363947878861986E+00
C    3.3106768780824645E+00    5.0237647037354449E+01   -3.2772452185425180E+00
C    4.0063836518938354E+00    5.1487821944342969E+01   -3.3107091364013148E+00
C    5.4619210558758109E+00    5.1442335316981598E+01   -3.4041364698455658E+00
C    1.9037981025372188E+00    5.2709628303549373E+01   -3.1925341138314112E+00
C    3.3199774373569930E+00    5.2691219769233960E+01   -3.3039532544171002E+00
C    4.0560772970648262E+00    4.1563131574383782E+01   -2.9537060095603680E+00
C    5.4641711253842971E+00    4.1577450500735104E+01   -3.0666721604731588E+00
C    6.1426854390877601E+00    4.2828625044006586E+01   -3.0032475329989237E+00
C    7.5650816033508450E+00    4.2848802330944025E+01   -3.0965633057694668E+00
C    8.2855061718113188E+00    4.4079025444330419E+01   -3.2121963946224947E+00
C    9.7102609397552300E+00    4.4087753732127204E+01   -3.2818494405645136E+00
C    6.1488820027941706E+00    4.5317771027847066E+01   -3.0839828359205681E+00
C    7.5870739407826395E+00    4.5283833662692331E+01   -3.2353596120406252E+00
C    8.3037751508969482E+00    4.6515886396188790E+01   -3.2343339586538717E+00
C    9.7700962159138882E+00    4.6534646817899869E+01   -3.2289732697797828E+00
C    6.1333729780066308E+00    4.7756678060442610E+01   -3.1024935824272979E+00
C    7.5975163852017804E+00    4.7769721170602288E+01   -3.0876247008765318E+00
C    8.2903121497310934E+00    4.9004154396023445E+01   -3.0723619512815503E+00
C    9.6926516977419688E+00    4.9009895797856231E+01   -3.1421203356941669E+00
C    6.1535501773253056E+00    5.0198243485658729E+01   -3.2858824770390460E+00
C    7.5619366901612883E+00    5.0230578219580543E+01   -3.2392219928750960E+00
C    8.2741836643347710E+00    5.1479728305137499E+01   -3.3583841379191606E+00
C    9.7052970434056878E+00    5.1516622967178989E+01   -3.3845663712122986E+00
C    6.1409478242765720E+00    5.2697133073593811E+01   -3.4481266578047212E+00
C    7.5494581679541826E+00    5.2687320317108835E+01   -3.4692231237928293E+00
C    8.2774233045464687E+00    4.1617645729772612E+01   -3.2043915992388037E+00
C    9.7166826410713938E+00    4.1620695088612742E+01   -3.1995567118793038E+00
C    1.0418676349612600E+01    4.2873004039832090E+01   -3.2564700100673987E+00
C    1.1834743929548919E+01    4.2895840880426142E+01   -3.2342544547874343E+00
C    1.2588662935123276E+01    4.4134622550363957E+01   -3.2878131041128849E+00
C    1.4027246857136049E+01    4.4100565924815577E+01   -3.3500390935583502E+00
C    1.0438096639535177E+01    4.5323151589113429E+01   -3.3232214805907621E+00
C    1.1852787648021101E+01    4.5311199018178137E+01   -3.3018951009530753E+00
C    1.2595113306680304E+01    4.6518631262224375E+01   -3.3466565903515599E+00
C    1.4035827934364013E+01    4.6529384410360095E+01   -3.3878003416133575E+00
C    1.0435932045888926E+01    4.7754533795815078E+01   -3.2283954624188818E+00
C    1.1845038885131540E+01    4.7744317168547639E+01   -3.2634963507842425E+00
C    1.2558098439148532E+01    4.8970050023296636E+01   -3.2568019873871701E+00
C    1.3961520327185580E+01    4.9004826752785711E+01   -3.2193510162138512E+00
C    1.0399341973276913E+01    5.0219947929952767E+01   -3.2641418360616812E+00
C    1.1844756282287969E+01    5.0218876031529135E+01   -3.2632422267312435E+00
C    1.2509488205060833E+01    5.1437242773816124E+01   -3.3197310314730664E+00
C    1.3972062335088683E+01    5.1444978544924290E+01   -3.2535288082261191E+00
C    1.0388526219007087E+01    5.2715295824014127E+01   -3.5204338664912140E+00
C    1.1830047552658192E+01    5.2679923908591022E+01   -3.4658810318019748E+00
C    1.2568680361743894E+01    4.1639454952016209E+01   -3.2548854869450499E+00
C    1.4014079614369589E+01    4.1595550328327448E+01   -3.2625812533484049E+00
C    1.4718841734956328E+01    3.0453695996271421E+01   -3.4173574819408614E+00
C    1.6146426534776761E+01    3.0445839482343857E+01   -3.3098944234365630E+00
C    1.6894727329207925E+01    3.1669055163380360E+01   -3.3577800317284789E+00
C    1.8282791664516353E+01    3.1704879297413452E+01   -3.2780217105208322E+00
C    1.4695003568513904E+01    3.2884504744850382E+01   -3.2184711094994780E+00
C    1.6156966030416406E+01    3.2898932749305061E+01   -3.2492033927439712E+00
C    1.6811091857702067E+01    3.4171131321143250E+01   -3.0728975171521635E+00
C    1.8238402030951026E+01    3.4155034265149929E+01   -3.1158118073514736E+00
C    1.4701865245593520E+01    3.5383397333525231E+01   -2.9735590416228206E+00
C    1.6124625379375836E+01    3.5421238956865842E+01   -2.8654164481006243E+00
C    1.6827479389828337E+01    3.6652051762729343E+01   -2.8255213594303670E+00
C    1.8240188340624950E+01    3.6588400949016858E+01   -2.9160171792482634E+00
C    1.4710047486753716E+01    3.7877962430868294E+01   -2.9334241006809081E+00
C    1.6110078310108271E+01    3.7896369013975061E+01   -2.8169178589549557E+00
C    1.6843137288694628E+01    3.9082085707806435E+01   -2.9102404833363065E+00
C    1.8268119944632748E+01    3.9036571581837094E+01   -2.8802752831938503E+00
C    1.4734806076315532E+01    4.0379764142405271E+01   -3.0162701351328955E+00
C    1.6149025484607098E+01    4.0356930962610235E+01   -3.0700813104373625E+00
C    1.6838401735937229E+01    2.9198791874650183E+01   -3.1920826230619181E+00
C    1.8259786710330001E+01    2.9267070495873501E+01   -3.1678642407750330E+00
C    1.8997132407849922E+01    3.0475914360554896E+01   -3.1331561443714553E+00
C    2.0433222552016957E+01    3.0467550994410932E+01   -3.0816883664249382E+00
C    2.1113534919711245E+01    3.1747868301721166E+01   -3.0608443345154202E+00
C    2.2545797836131598E+01    3.1709159288620413E+01   -3.0187279471961275E+00
C    1.8940005976800453E+01    3.2934049207895370E+01   -3.1264305623764681E+00
C    2.0394838655187460E+01    3.2955826071839901E+01   -3.0161979927344351E+00
C    2.1155406585261350E+01    3.4207642262940880E+01   -3.0466950721872430E+00
C    2.2574056026889231E+01    3.4201324129761019E+01   -2.9700413452826986E+00
C    1.9025306548791328E+01    3.5407214605159069E+01   -2.9996079375118705E+00
C    2.0416476112815555E+01    3.5397044265230349E+01   -2.9219447203065250E+00
C    2.1128808001529240E+01    3.6627462716298083E+01   -2.8745159821309323E+00
C    2.2565372996553716E+01    3.6655330702523010E+01   -2.9426761545196132E+00
C    1.8981243074823041E+01    3.7829977416308346E+01   -2.8348727513870231E+00
C    2.0389794497211888E+01    3.7861593740149644E+01   -2.8783292532048943E+00
C    2.1120012259204316E+01    3.9095462630826553E+01   -2.8662643344742453E+00
C    2.2554045518785159E+01    3.9108033660486754E+01   -2.9620526397390337E+00
C    1.8969301659480344E+01    4.0340869621287339E+01   -2.8724662207165910E+00
C    2.0397974445614338E+01    4.0328876648946576E+01   -2.8340652366267962E+00
C    2.1153123649289252E+01    2.9248486627224231E+01   -3.1514889922507892E+00
C    2.2531197317650925E+01    2.9237980353955763E+01   -3.0997378844847456E+00
C    2.3267343193060274E+01    3.0472950287121492E+01   -3.1356433596890225E+00
C    2.4679988498969262E+01    3.0474951557385069E+01   -3.1032651304245102E+00
C    2.5420511974470216E+01    3.1712795310279414E+01   -3.0575543554068485E+00
C    2.6844607726963670E+01    3.1720797502069878E+01   -3.0077175892092565E+00
C    2.3261320289815806E+01    3.2940135285915225E+01   -2.9807802885392474E+00
C    2.4720037134287313E+01    3.2959969188348296E+01   -2.9972804232175867E+00
C    2.5414056365457881E+01    3.4199061442034122E+01   -2.8257520201077710E+00
C    2.6875629479315901E+01    3.4180094589148773E+01   -2.9237149775582583E+00
C    2.3305936006173486E+01    3.5417539046863368E+01   -2.9127760723165212E+00
C    2.4731303700108352E+01    3.5435846890519684E+01   -2.8067638372520518E+00
C    2.5413384138061250E+01    3.6639192694640116E+01   -2.7844774806156898E+00
C    2.6864661346957195E+01    3.6619892482135022E+01   -2.7805573703741508E+00
C    2.3291051995646690E+01    3.7882520647565123E+01   -2.9545903350013942E+00
C    2.4720076551164382E+01    3.7835158419104026E+01   -2.8884364501495678E+00
C    2.5417019018139658E+01    3.9092501568728487E+01   -2.9447136050114953E+00
C    2.6850667896098351E+01    3.9092423275422043E+01   -2.9259486446250187E+00
C    2.3287168165202100E+01    4.0326554474221339E+01   -3.0070480397086903E+00
C    2.4699200695032296E+01    4.0313889210443705E+01   -3.0117707971772476E+00
C    2.5413246540016235E+01    2.9248145416689393E+01   -3.1399142047903319E+00
C    2.6858434612410257E+01    2.9298544343341646E+01   -3.1068028246298414E+00
C    1.4688276280712385E+01    4.2858773792035336E+01   -3.2717731234208438E+00
C    1.6120576946342918E+01    4.2807203421336027E+01   -3.1208998205670380E+00
C    1.6867862070965995E+01    4.4051766862503293E+01   -3.1514884898097590E+00
C    1.8291085428599335E+01    4.4049597928596171E+01   -3.0920441720611449E+00
C    1.4747624003440894E+01    4.5330922998076623E+01   -3.4004370577586518E+00
C    1.6160420497000008E+01    4.5302443194871231E+01   -3.2935603805373290E+00
C    1.6880981562370671E+01    4.6546566542300752E+01   -3.2615894197598916E+00
C    1.8296026918859706E+01    4.6502630610997215E+01   -3.0893866572757234E+00
C    1.4706996339065565E+01    4.7777859598531151E+01   -3.2760822841385036E+00
C    1.6155204247533941E+01    4.7717655511269307E+01   -3.3280772447718530E+00
C    1.6880282798155580E+01    4.8957507498411061E+01   -3.2710103956411296E+00
C    1.8293371022422125E+01    4.9005362044540263E+01   -3.1111074978534718E+00
C    1.4711941240020462E+01    5.0222678260355394E+01   -3.2368049481489205E+00
C    1.6135138669607205E+01    5.0203026203600793E+01   -3.2610653914080654E+00
C    1.6850080085146868E+01    5.1412014640806007E+01   -3.2180567789227048E+00
C    1.8268186692455672E+01    5.1441552474634321E+01   -3.1107751593077322E+00
C    1.4694198754879427E+01    5.2661858003508506E+01   -3.3618087421706928E+00
C    1.6119996612091253E+01    5.2631325997923412E+01   -3.2377840936913054E+00
C    1.6841038944465335E+01    4.1592391526142229E+01   -3.0120474467576814E+00
C    1.8288264517487939E+01    4.1568449509655800E+01   -2.9423186993833319E+00
C    1.8980432348109872E+01    4.2825381958491199E+01   -2.9670015432634820E+00
C    2.0429588679443874E+01    4.2804554308762896E+01   -2.9207945008278475E+00
C    2.1149818190964314E+01    4.4041491089636210E+01   -2.9526413502052851E+00
C    2.2556394017151721E+01    4.4024678311222821E+01   -2.9383460130832511E+00
C    1.9003134693641080E+01    4.5266394146837975E+01   -3.0938465440494474E+00
C    2.0422578656523296E+01    4.5253093318079209E+01   -3.0303274767841595E+00
C    2.1119858195124483E+01    4.6502168758011450E+01   -2.9645307827919156E+00
C    2.2577466675256598E+01    4.6513663469471119E+01   -2.8896006898170454E+00
C    1.9020097510211631E+01    4.7756830352850784E+01   -2.9930499993637500E+00
C    2.0401857422678631E+01    4.7755296580578225E+01   -2.9014611868173361E+00
C    2.1112946081430497E+01    4.8975150070351916E+01   -2.8478404222286544E+00
C    2.2554702339772970E+01    4.9000560081183728E+01   -2.8035531323887364E+00
C    1.8986338819170264E+01    5.0205003525284262E+01   -3.0267293292892439E+00
C    2.0394558183467986E+01    5.0224059131779477E+01   -2.9037923282010176E+00
C    2.1108622084879826E+01    5.1450151022316312E+01   -2.9254327315374837E+00
C    2.2555331993937365E+01    5.1460518425023956E+01   -2.7672269663457953E+00
C    1.8991445544873315E+01    5.2694199732731519E+01   -3.0775766349236178E+00
C    2.0425946606682068E+01    5.2679434086907300E+01   -3.0800088038145526E+00
C    2.1132103747422615E+01    4.1553808255520686E+01   -2.9321751245673560E+00
C    2.2546283884823485E+01    4.1555416444646831E+01   -3.0150758142032190E+00
C    2.3294848493673079E+01    4.2764332094492687E+01   -3.0046426403743909E+00
C    2.4715662722504625E+01    4.2774976422369249E+01   -3.1051409618639614E+00
C    2.5412945092490315E+01    4.4010349859578113E+01   -3.0471655289193924E+00
C    2.6813104210846994E+01    4.4025316796061574E+01   -3.1294646283827996E+00
C    2.3273841826458810E+01    4.5252743543041390E+01   -3.0256385855312806E+00
C    2.4720565260361095E+01    4.5238769064666840E+01   -3.0358213575122277E+00
C    2.5381354418871769E+01    4.6477004698647661E+01   -3.0158239027858147E+00
C    2.6793472707862655E+01    4.6502286981621033E+01   -3.2081805394547853E+00
C    2.3248884728569209E+01    4.7764487850676339E+01   -2.7955206689054664E+00
C    2.4680040312575002E+01    4.7756447527496704E+01   -2.9344136355485997E+00
C    2.5382706982085370E+01    4.8969701396376657E+01   -3.0435569739450612E+00
C    2.6800010664030168E+01    4.8998371678019566E+01   -3.1265243870740878E+00
C    2.3240681770305237E+01    5.0213228434857001E+01   -2.7845056422535777E+00
C    2.4676379731069350E+01    5.0188378080569173E+01   -2.9622894121003083E+00
C    2.5410113315549250E+01    5.1458025223980925E+01   -3.0013106940047654E+00
C    2.6813197085440194E+01    5.1470988810971285E+01   -3.1166426827877562E+00
C    2.3237737637308086E+01    5.2695101753732288E+01   -2.9008096309023723E+00
C    2.4700972577674690E+01    5.2667871141201154E+01   -2.9568134890611875E+00
C    2.5409017858864015E+01    4.1547458718602655E+01   -3.0512106159143961E+00
C    2.6850114792585650E+01    4.1562141904037652E+01   -2.9806482550990703E+00
O    2.4002491864049770E+02    1.2212513290463475E+02    1.0688511023073815E+01
H    2.4023336205534287E+02    1.2307010578067354E+02    1.0529385974853994E+01
H    2.3991782927179929E+02    1.2205121693213469E+02    1.1707064604617031E+01
O    2.3538894153688486E+02    1.0112862785640783E+02    2.2804610171455675E+00
H    2.3572815300876491E+02    1.0144171986061737E+02    1.4265440757538566E+00
H    2.3622727155595345E+02    1.0118240950833179E+02    2.7738751658174681E+00
O    1.4951190815399619E+02    2.3697559164939094E+02    2.9013087634800678E+00
H    1.4870526514843297E+02    2.3743834910024592E+02    3.1627132491853884E+00
H    1.5030467220343573E+02    2.3758789524609429E+02    2.9239801491694908E+00
O    2.5419605330820963E+02    7.3012561796507455E+01    3.0135525096431777E+00
H    2.5372860856533242E+02    7.2171366345733446E+01    3.2022852739812233E+00
H    2.5348112262836622E+02    7.3635851601412412E+01    2.7546807681629395E+00
O    1.9270054583139887E+02    1.5105591887102713E+02    8.1428558841463214E+00
H    1.9216918782364991E+02    1.5177854113692462E+02    8.5448968519761586E+00
H    1.9343814901678809E+02    1.5150174790969879E+02    7.6946737121597621E+00
O    1.8589926320484207E+02    1.3396831931319224E+02    1.3775585959703276E+01
H    1.8582074114803876E+02    1.3345684474495499E+02    1.2918552306631250E+01
H    1.8656096154863647E+02    1.3351068100734921E+02    1.4385322792357094E+01
O    2.1573442961680752E+02    1.5299409194425184E+02   -8.6550126290879242E-02
H    2.1475401563037323E+02    1.5300789218310044E+02   -2.1385811099458807E-01
H    2.1609903271188722E+02    1.5394725905436073E+02   -2.3678351360354369E-01
O    1.7784109880340824E+02    5.7040039927336721E+01    6.0097868422242726E+00
H    1.7856258121851582E+02    5.6617721975573957E+01    6.4635859697296718E+00
H    1.7736358237458651E+02    5.6386501418023094E+01    5.4736877210925510E+00
O    2.0630191866074634E+02    1.4772476216021647E+02    1.7352360634548158E+00
H    2.0586759977642308E+02    1.4792323868589136E+02    2.5766594964620069E+00
H    2.0725620203845395E+02    1.4764012779666393E+02    1.9651920089315948E+00
O    2.8176993474605160E+02    1.8177338183826927E+02    1.5625429157745454E+01
H    2.8143187786871971E+02    1.8237480682708758E+02    1.6314460119699081E+01
H    2.8258117098462213E+02    1.8229121275979622E+02    1.5424770919939142E+01
O    1.9460316944843817E+02    1.3980703053174159E+02    1.2305993037936226E+01
H    1.9522476975283885E+02    1.3937943269995785E+02    1.2973178536444960E+01
H    1.9516892953304844E+02    1.3972260913217610E+02    1.1493302846603472E+01
O    1.5391397452148075E+02    1.4021900274405235E+02    8.4321770034936918E+00
H    1.5362816767266526E+02    1.3965510981294733E+02    7.6161259936739754E+00
H    1.5464802246221029E+02    1.3976309336413721E+02    8.9183057585638554E+00
O    1.9270876104521628E+02    9.4446344415381219E+01   -3.1598047632856840E-01
H    1.9274130071833684E+02    9.3591289537723654E+01   -7.7908712200423569E-01
H    1.9356735653612245E+02    9.4486784190453079E+01    1.8556088470938187E-01
O    2.0413374432962797E+02    2.7584869207486339E+01    1.2158153018207116E+01
H    2.0433865313874847E+02    2.7117602985498475E+01    1.1334857206475226E+01
H    2.0455576686469269E+02    2.8482610289271065E+01    1.2119700172582599E+01
O    1.4213070791073730E+02    2.8089934024066667E+02    6.0386357071378090E+00
H    1.4232546569562447E+02    2.8073968676335818E+02    6.9740197687522647E+00
H    1.4220898149683836E+02    2.8186448033452740E+02    5.9217941834164849E+00
O    1.8862216630911692E+02    1.6370823146087525E+02    7.8715959789673351E-01
H    1.8898371353157151E+02    1.6431397912618996E+02    9.5620067757788058E-02
H    1.8765963802836981E+02    1.6380525994766202E+02    7.8326921406359951E-01
O    1.7917115230042720E+02    2.0278507871822046E+02    1.1855643688770721E+01
H    1.7921786684789635E+02    2.0360148464186821E+02    1.2430464711576983E+01
H    1.7827176243078270E+02    2.0291493586693161E+02    1.1434456795171604E+01
O    1.7280363831306579E+02    1.5721637289422640E+02    9.5566430855839624E-01
H    1.7265820949999807E+02    1.5630028077152161E+02    6.5932364672376309E-01
H    1.7300314173951995E+02    1.5726587660716007E+02    1.9397201384658262E+00
O    1.6514270933893923E+02    1.0768946465112508E+02    5.9035148086922309E+00
H    1.6615587658367764E+02    1.0770665390900102E+02    6.0118613514592774E+00