 # Version information for this restart file 
 # current date 2019-01-28 05:12:33.448
 # current working dir /scratch/snx3000/gtocci/gtocci/MEMBRANES/AIMD_US_IONS_GRA/potassium/aimd_us_pot/us_14
 # Program compiled at                             Thu Oct 11 21:49:41 CEST 2018
 # Program compiled on                                                  daint104
 # Program compiled for                                   CRAY_XC50-gfortran_gpu
 # Source code revision number                                     git:be74c20a5
 &GLOBAL
   PRINT_LEVEL  LOW
   PROJECT_NAME GRAS
   RUN_TYPE  MD
   WALLTIME 10200
 &END GLOBAL
 &MOTION
   &MD
     ENSEMBLE  NVT
     STEPS  100000
     TIMESTEP     9.9999999999999989E-01
     STEP_START_VAL  40784
     TIME_START_VAL     4.0783999999990679E+04
     ECONS_START_VAL    -8.3205221541647679E+03
     TEMPERATURE     3.0000000000000000E+02
     TEMP_KIND  T
     &BAROSTAT
       PRESSURE     1.0000000000000000E+00
       TIMECON     9.9999999999999986E+01
       VIRIAL  Z
     &END BAROSTAT
     &THERMOSTAT
       TYPE  NOSE
       REGION  GLOBAL
       &NOSE
         LENGTH  4
         TIMECON     9.9999999999999986E+01
         MTS  2
         &COORD
               1.9910497440840677E-01   -7.7601415735460373E+00   -8.6697221969433669E-01    3.6752761142046455E+00
         &END COORD
         &VELOCITY
              -1.1376065843102719E-06    1.8226983978162465E-04   -4.5660818017176765E-04   -1.5567057430365189E-04
         &END VELOCITY
         &MASS
               7.0145132684705392E+07    1.6237299232570693E+04    1.6237299232570693E+04    1.6237299232570693E+04
         &END MASS
         &FORCE
              -2.2808306093567160E-09   -5.2919291290427589E-08   -2.5287719356085948E-08    1.4998101634966833E-07
         &END FORCE
       &END NOSE
     &END THERMOSTAT
     &AVERAGES  T
       &RESTART_AVERAGES
         ITIMES_START  1
         AVECPU     4.6742522627781881E+01
         AVEHUGONIOT     0.0000000000000000E+00
         AVETEMP_BARO     0.0000000000000000E+00
         AVEPOT    -8.3232618358975451E+03
         AVEKIN     2.0496691750710978E+00
         AVETEMP     2.9964516762758933E+02
         AVEKIN_QM     0.0000000000000000E+00
         AVETEMP_QM     0.0000000000000000E+00
         AVEVOL     2.1331414786628101E+05
         AVECELL_A     4.8437460238125489E+01
         AVECELL_B     4.6608961231944654E+01
         AVECELL_C     9.4486306644279523E+01
         AVEALPHA     9.0000000000000057E+01
         AVEBETA     9.0000000000000057E+01
         AVEGAMMA     9.0000000000000057E+01
         AVE_ECONS    -2.1898158171505684E+00
         AVE_PRESS     0.0000000000000000E+00
         AVE_PXX     0.0000000000000000E+00
       &END RESTART_AVERAGES
     &END AVERAGES
     &PRINT
       &TEMP_KIND  SILENT
       &END TEMP_KIND
     &END PRINT
   &END MD
   &FREE_ENERGY
     &METADYN
       MIN_DISP    -1.0000000000000000E+00
       OLD_HILL_NUMBER  0
       OLD_HILL_STEP  0
       DO_HILLS  F
       STEP_START_VAL  40784
       NHILLS_START_VAL  0
       &METAVAR
         SCALE     1.0000000000000000E+00
         COLVAR  1
       &END METAVAR
       &PRINT
         &COLVAR  SILENT
           COMMON_ITERATION_LEVELS  3
           &EACH
             MD  1
           &END EACH
         &END COLVAR
       &END PRINT
     &END METADYN
   &END FREE_ENERGY
   &CONSTRAINT
     &COLLECTIVE
       COLVAR  1
       INTERMOLECULAR  T
       &RESTRAINT
         K     4.4625385281452931E-04
       &END RESTRAINT
     &END COLLECTIVE
     &COLVAR_RESTART
           1.3228082930199504E+01
     &END COLVAR_RESTART
   &END CONSTRAINT
   &PRINT
     &TRAJECTORY  SILENT
       &EACH
         MD  1
       &END EACH
     &END TRAJECTORY
     &VELOCITIES  SILENT
       &EACH
         MD  1
       &END EACH
     &END VELOCITIES
     &FORCES  SILENT
       UNIT eV*angstrom^-1
       &EACH
         MD  1
       &END EACH
     &END FORCES
     &RESTART  SILENT
       &EACH
         MD  1
       &END EACH
     &END RESTART
     &RESTART_HISTORY  SILENT
       &EACH
         MD  100
       &END EACH
     &END RESTART_HISTORY
   &END PRINT
 &END MOTION
 &FORCE_EVAL
   METHOD  QS
   &DFT
     BASIS_SET_FILE_NAME /users/gtocci/scratch_daint_3000/data_cp2k//BASIS_MOLOPT
     POTENTIAL_FILE_NAME /users/gtocci/scratch_daint_3000/data_cp2k//GTH_POTENTIALS
     WFN_RESTART_FILE_NAME ./GRAS-RESTART.wfn
     CHARGE  1
     &SCF
       MAX_SCF  10
       EPS_SCF     9.9999999999999995E-07
       SCF_GUESS  RESTART
       &OT  T
         MINIMIZER  DIIS
         PRECONDITIONER  FULL_KINETIC
       &END OT
       &OUTER_SCF  T
         EPS_SCF     9.9999999999999995E-07
         MAX_SCF  30
       &END OUTER_SCF
       &PRINT
         &RESTART  SILENT
           ADD_LAST  NUMERIC
           &EACH
             QS_SCF  50
           &END EACH
         &END RESTART
       &END PRINT
     &END SCF
     &QS
       MAP_CONSISTENT  T
       EXTRAPOLATION  ASPC
       EXTRAPOLATION_ORDER  4
     &END QS
     &MGRID
       NGRIDS  5
       CUTOFF     4.6000000000000000E+02
     &END MGRID
     &XC
       DENSITY_CUTOFF     1.0000000000000000E-10
       GRADIENT_CUTOFF     1.0000000000000000E-10
       TAU_CUTOFF     1.0000000000000000E-10
       &XC_GRID
         XC_DERIV  SPLINE2_SMOOTH
       &END XC_GRID
       &XC_FUNCTIONAL  NO_SHORTCUT
         &LIBXC  T
           FUNCTIONAL XC_GGA_X_OPTB88_VDW
         &END LIBXC
         &VWN  T
         &END VWN
       &END XC_FUNCTIONAL
       &VDW_POTENTIAL
         POTENTIAL_TYPE  NON_LOCAL
         &NON_LOCAL
           TYPE  DRSLL
           VERBOSE_OUTPUT  T
           KERNEL_FILE_NAME /users/gtocci/scratch_daint_3000/data_cp2k//vdW_kernel_table.dat
         &END NON_LOCAL
       &END VDW_POTENTIAL
     &END XC
     &REAL_TIME_PROPAGATION
       INITIAL_WFN  SCF_WFN
     &END REAL_TIME_PROPAGATION
     &PRINT
       &MULLIKEN  SILENT
         FILENAME =GRAS.mulliken
       &END MULLIKEN
     &END PRINT
   &END DFT
   &SUBSYS
     &CELL
       A     2.5632000000000001E+01    0.0000000000000000E+00    0.0000000000000000E+00
       B     0.0000000000000000E+00    2.4664400000000022E+01    0.0000000000000000E+00
       C     0.0000000000000000E+00    0.0000000000000000E+00    5.0000000000000028E+01
       MULTIPLE_UNIT_CELL  1 1 1
     &END CELL
     &COORD
C    5.2326751545662740E+00    1.1302640683170067E+01   -7.7626558137191004E-01
C    6.6415461853595739E+00    1.1299225094143113E+01   -7.5236284378618368E-01
C    7.3852956814839992E+00    1.2511860512633220E+01   -8.4855405707980935E-01
C    8.8159063143899061E+00    1.2553746384442150E+01   -7.5650105875144458E-01
C    5.2095160339565307E+00    1.3757256582021322E+01   -9.3295898209038397E-01
C    6.6599950890643322E+00    1.3765348379696496E+01   -9.1844121619468588E-01
C    7.3655728970748173E+00    1.5016044978474930E+01   -1.0328497298141699E+00
C    8.7999451635792436E+00    1.5001770600128635E+01   -1.0629615056453245E+00
C    5.2352345544876746E+00    1.6253671095054543E+01   -9.5134655238335242E-01
C    6.6476269005954007E+00    1.6243614645403706E+01   -1.0816147759568211E+00
C    7.3351521858299771E+00    1.7493538044082729E+01   -1.1684314941644354E+00
C    8.7530090166127810E+00    1.7477770581120140E+01   -1.2267855896412558E+00
C    5.2531988154967362E+00    1.8729898667683781E+01   -9.7620938353203046E-01
C    6.6487193720786877E+00    1.8741834416479414E+01   -1.1410042419790742E+00
C    7.3727599675810218E+00    1.9945514739529600E+01   -1.1360506056731585E+00
C    8.7739899113108777E+00    1.9955689257942261E+01   -1.1756842160399394E+00
C    5.3064908855327051E+00    2.1181138279454981E+01   -8.6687356359239254E-01
C    6.7149797780640119E+00    2.1183857450643586E+01   -9.4264809508785008E-01
C    7.3534821329512905E+00    1.0086968898563223E+01   -8.0274192754217633E-01
C    8.7890728220517840E+00    1.0093426901688332E+01   -7.8613437206555803E-01
C    9.5210754724518587E+00    1.1307767282922713E+01   -7.7459162824853323E-01
C    1.0907432548322616E+01    1.1294046154666342E+01   -7.1088517344189572E-01
C    1.1597750451338275E+01    1.2553870931234270E+01   -7.4472720873033638E-01
C    1.3033982036746631E+01    1.2535686444267910E+01   -7.1455749985030426E-01
C    9.4789272842316912E+00    1.3826495709905775E+01   -8.7536376554732542E-01
C    1.0888892420433484E+01    1.3799040592717830E+01   -8.8329072832322530E-01
C    1.1602155467318969E+01    1.5021784961180650E+01   -1.0279762258389511E+00
C    1.3030548963897862E+01    1.4976710652580680E+01   -9.8178112823496100E-01
C    9.4872610514438289E+00    1.6271788807042515E+01   -1.1957712497187243E+00
C    1.0918972835963146E+01    1.6261892173689294E+01   -1.1297755104445746E+00
C    1.1641088426908684E+01    1.7483144539914985E+01   -1.1797771702694635E+00
C    1.3069116295742516E+01    1.7441762192798414E+01   -1.0773745910936294E+00
C    9.4908437530853131E+00    1.8703080054753105E+01   -1.2324394957920235E+00
C    1.0918057706119772E+01    1.8704496787853781E+01   -1.1641944553053787E+00
C    1.1643230878799308E+01    1.9918787208962538E+01   -1.1200269289562177E+00
C    1.3049052158464796E+01    1.9935406713595800E+01   -1.1140562482743799E+00
C    9.4793835864753326E+00    2.1161752547243072E+01   -1.0082509586310995E+00
C    1.0921105548348002E+01    2.1162802190596274E+01   -1.0421466055923723E+00
C    1.1590732276857581E+01    1.0072528998396038E+01   -6.2589436725282688E-01
C    1.3047889751434496E+01    1.0059480793817883E+01   -4.3392527768570227E-01
C    1.3735518290670893E+01    1.1318330500988296E+01   -5.4284029807342749E-01
C    1.5141221907484606E+01    1.1307491339249877E+01   -6.0193408358520606E-01
C    1.5868872759235913E+01    1.2521860076475543E+01   -6.5179079898697234E-01
C    1.7315492693956244E+01    1.2530804484257237E+01   -6.1598691145143702E-01
C    1.3746773051888788E+01    1.3746165755822103E+01   -8.5802397839528821E-01
C    1.5200648290862963E+01    1.3772303854031788E+01   -8.5151458535684410E-01
C    1.5934183246620615E+01    1.4972481936563852E+01   -9.0510698035348525E-01
C    1.7384356965793398E+01    1.4990344765958080E+01   -8.0439628943812480E-01
C    1.3789643807819303E+01    1.6208572627236254E+01   -1.0490206530017849E+00
C    1.5221187524037617E+01    1.6218820781274541E+01   -9.8849720787467665E-01
C    1.5907391086673021E+01    1.7467588858315995E+01   -9.7484227414377800E-01
C    1.7366808451553855E+01    1.7452619947496846E+01   -8.3803551441584390E-01
C    1.3769403595745944E+01    1.8678792274661273E+01   -1.0358279089382909E+00
C    1.5201960373588999E+01    1.8668681644170483E+01   -9.7866028646168879E-01
C    1.5912789960515479E+01    1.9873966907389828E+01   -9.2156812765640816E-01
C    1.7360633308005255E+01    1.9902348900355189E+01   -9.5297840254644473E-01
C    1.3812242056695426E+01    2.1142457818763550E+01   -9.6721196956072908E-01
C    1.5213623495947553E+01    2.1138145779748033E+01   -8.8106178332480745E-01
C    1.5901204029522349E+01    1.0044398951667047E+01   -5.6420029735151356E-01
C    1.7332983583851149E+01    1.0069628574353681E+01   -5.8456283334305903E-01
C    5.3354345194895361E+00    2.3679175953690873E+01   -6.9682353916764062E-01
C    6.7209854931357080E+00    2.3649234482564736E+01   -5.7488475095979730E-01
C    7.4017954611395824E+00    2.4904540243187729E+01   -5.3505862401352533E-01
C    8.8572934962028818E+00    2.4884446160311473E+01   -6.1221080433615049E-01
C    5.2776418924210962E+00    2.6150516214973354E+01   -6.6661284911870222E-01
C    6.6724939054170411E+00    2.6130504578301231E+01   -4.8075042549722918E-01
C    7.3932695719525929E+00    2.7333747341724369E+01   -5.5605322589249095E-01
C    8.8038737833634730E+00    2.7375624470325253E+01   -6.8977210733363881E-01
C    5.2396629188046315E+00    2.8644785466031145E+01   -7.1348569643279325E-01
C    6.6695827242636065E+00    2.8602021103944256E+01   -6.3421093888049507E-01
C    7.3751887712195385E+00    2.9826427176899980E+01   -7.2912248335901075E-01
C    8.8321285758497261E+00    2.9832948152509683E+01   -7.6259831486115348E-01
C    5.2490633367450226E+00    3.1086068095568823E+01   -8.2116956650248751E-01
C    6.6506220128861155E+00    3.1047369114092408E+01   -7.7576247661887721E-01
C    7.3307071162522481E+00    3.2285999704144075E+01   -7.1214613276181837E-01
C    8.7600719040194299E+00    3.2294489515915181E+01   -7.0222536201748054E-01
C    5.2275721364722818E+00    3.3510928216363027E+01   -8.5736094141280650E-01
C    6.6424780330976381E+00    3.3516955367256578E+01   -8.4130172457653696E-01
C    7.4298965908601877E+00    2.2446103756192770E+01   -7.1446716647206843E-01
C    8.8267099496431971E+00    2.2381859296778359E+01   -7.8987408228279032E-01
C    9.5525876753591028E+00    2.3645654510143473E+01   -7.9573848716207096E-01
C    1.0975882250417651E+01    2.3656678595722198E+01   -8.5892670229341672E-01
C    1.1665253575243133E+01    2.4912839757809486E+01   -7.8608127703575115E-01
C    1.3143493219013026E+01    2.4895372075835535E+01   -7.4324195910709689E-01
C    9.5323208468710536E+00    2.6147504767544252E+01   -7.1591206794774609E-01
C    1.0946586496072726E+01    2.6121571120748165E+01   -6.8515016220792591E-01
C    1.1650011979487722E+01    2.7338864733102088E+01   -6.6175117966939800E-01
C    1.3079349633867880E+01    2.7327639336850215E+01   -5.9633196359650231E-01
C    9.5016749600936432E+00    2.8604048121673973E+01   -7.6464825477719822E-01
C    1.0967183796037467E+01    2.8609222939129296E+01   -7.0388046065655407E-01
C    1.1636947798783742E+01    2.9836706076607580E+01   -6.3829900130088457E-01
C    1.3076930901940068E+01    2.9812461190549257E+01   -6.4379826773915960E-01
C    9.4849320642453563E+00    3.1074449545396405E+01   -6.1109201355283960E-01
C    1.0896001284599786E+01    3.1075863186408672E+01   -6.8050609974883458E-01
C    1.1617986588891675E+01    3.2284240571697445E+01   -6.7052862701408156E-01
C    1.3021351483417121E+01    3.2245971792054547E+01   -6.2477170754517319E-01
C    9.4968352297248728E+00    3.3501587970865046E+01   -7.1671943845207231E-01
C    1.0890842757935339E+01    3.3517700959192460E+01   -6.6349111419480200E-01
C    1.1666280374092516E+01    2.2409151478175499E+01   -9.2036927085366638E-01
C    1.3092958436462423E+01    2.2394640265700215E+01   -9.5310305394714312E-01
C    1.3805114937426621E+01    2.3644838024143898E+01   -8.5197012764146796E-01
C    1.5212005793550759E+01    2.3636003210534998E+01   -8.5159976249366942E-01
C    1.5931476696962052E+01    2.4881335802751664E+01   -8.2575277866556784E-01
C    1.7330887414029636E+01    2.4883773951298853E+01   -9.0929786004819069E-01
C    1.3847457140020275E+01    2.6126671210409988E+01   -6.3693821726223609E-01
C    1.5248042265031534E+01    2.6108714853112339E+01   -7.2853241629788490E-01
C    1.5934584783997455E+01    2.7383228256027326E+01   -7.8430467170995732E-01
C    1.7354687690959341E+01    2.7346774609517936E+01   -8.7801846776867243E-01
C    1.3772201984668927E+01    2.8570117139918661E+01   -6.8761710482705862E-01
C    1.5208680117982453E+01    2.8610386318931685E+01   -7.5794064927717841E-01
C    1.5929009732792336E+01    2.9813693382522391E+01   -7.1162486563003113E-01
C    1.7380786490408742E+01    2.9826969984654145E+01   -8.0110468621082920E-01
C    1.3771474587316288E+01    3.1016351590440006E+01   -6.5270036960846223E-01
C    1.5214580427654209E+01    3.1039857330487077E+01   -7.0071528740131483E-01
C    1.5893230203037938E+01    3.2260168521010911E+01   -6.5765850316679719E-01
C    1.7325081679371497E+01    3.2264561420261543E+01   -6.1843403856059742E-01
C    1.3745176490284882E+01    3.3505008634945391E+01   -5.3046668838861710E-01
C    1.5194220226518018E+01    3.3451320654446413E+01   -5.7783062078541603E-01
C    1.5951697755890159E+01    2.2394789194859367E+01   -9.1471849956815465E-01
C    1.7329043319867264E+01    2.2436459635488912E+01   -9.5763918443481311E-01
C    1.8055710593795812E+01    1.1336725275676919E+01   -4.9527688593232372E-01
C    1.9481331534412959E+01    1.1347928691724933E+01   -5.3867643175839164E-01
C    2.0234772143531430E+01    1.2566150378642382E+01   -4.9093882267662864E-01
C    2.1644813036621311E+01    1.2569664492752477E+01   -5.5817058905855421E-01
C    1.8095328466197355E+01    1.3767641269573607E+01   -6.5256046154982728E-01
C    1.9492327577688084E+01    1.3796442694416672E+01   -5.6354384502496813E-01
C    2.0167627853463788E+01    1.5029794122985207E+01   -6.5789536224508016E-01
C    2.1634569933095680E+01    1.5040883586788295E+01   -7.0016595007930016E-01
C    1.8071019869845781E+01    1.6232924196207399E+01   -7.5636380978167361E-01
C    1.9498698311832559E+01    1.6277894311817043E+01   -7.1915396922996100E-01
C    2.0226992910922746E+01    1.7517129277186758E+01   -8.4889746060591043E-01
C    2.1654368276689251E+01    1.7529985278050297E+01   -8.6935222617366636E-01
C    1.8062822718970789E+01    1.8670454633958784E+01   -9.5172087202364175E-01
C    1.9493563015181465E+01    1.8722108917976154E+01   -9.2646320476792177E-01
C    2.0174688007604246E+01    1.9945298449405705E+01   -1.0523557794699105E+00
C    2.1591222746508212E+01    1.9942661929348443E+01   -1.0781431448557621E+00
C    1.8018819312662561E+01    2.1191306586768391E+01   -9.5017157023912913E-01
C    1.9438044888740539E+01    2.1171610134302473E+01   -1.0186086823153955E+00
C    2.0184829101174053E+01    1.0106652145813829E+01   -5.8565126806137058E-01
C    2.1638519787345604E+01    1.0099666113242197E+01   -6.8798925268262101E-01
C    2.2362840347725644E+01    1.1310730983924941E+01   -7.2455735899547946E-01
C    2.3772833778733027E+01    1.1363583493740391E+01   -7.8123211699360628E-01
C    2.4515414028462956E+01    1.2579898612002030E+01   -6.4070355559254544E-01
C    2.5900421145687741E+01    1.2565884182336291E+01   -7.8416870194746224E-01
C    2.2321880490325938E+01    1.3812824382639199E+01   -5.6597288301165227E-01
C    2.3759784724623046E+01    1.3823420123132401E+01   -6.1925316899984473E-01
C    2.4470368070895230E+01    1.5037205418178186E+01   -6.1362075964187113E-01
C    2.5901510285670106E+01    1.5059301716463860E+01   -6.6989699609771325E-01
C    2.2363690596251299E+01    1.6277665997143718E+01   -7.7025673712649556E-01
C    2.3779539273236541E+01    1.6291332447959835E+01   -6.6456763196173341E-01
C    2.4479319873149084E+01    1.7520413580033988E+01   -8.5421528088503706E-01
C    2.5927082452008438E+01    1.7535230274103210E+01   -8.6732157967222334E-01
C    2.2323032470374478E+01    1.8751585968962921E+01   -9.9918872030478745E-01
C    2.3751444498183545E+01    1.8763878519933755E+01   -9.3575770562674798E-01
C    2.4492848485873420E+01    1.9979129515951460E+01   -1.0677017179695494E+00
C    2.5905020490429980E+01    2.0005960986510825E+01   -1.0843693275197739E+00
C    2.2301379426409802E+01    2.1207504719377912E+01   -1.1104078334711365E+00
C    2.3721670276080832E+01    2.1222788944663947E+01   -1.0767867218296574E+00
C    2.4486033968525319E+01    1.0155747618213169E+01   -8.9492548769382085E-01
C    2.5899975239708567E+01    1.0113191348230451E+01   -9.4970656551945665E-01
C    2.6588310099609679E+01    1.1330942086514034E+01   -9.6797598444900812E-01
C    2.8028886214821107E+01    1.1368502270110087E+01   -8.8385365440261143E-01
C    2.8706496474206439E+01    1.2575778222404475E+01   -8.3696120479354952E-01
C    3.0122556052317563E+01    1.2545792652202660E+01   -8.1038138329767784E-01
C    2.6570047691647929E+01    1.3824481882643317E+01   -7.1798926472822933E-01
C    2.7983650445337133E+01    1.3835745458154740E+01   -8.2910584830892786E-01
C    2.8692224236470491E+01    1.5059657537166448E+01   -9.3411750142546979E-01
C    3.0100464105612780E+01    1.5014296195119714E+01   -9.4826217468793428E-01
C    2.6577228981208417E+01    1.6275932615929058E+01   -7.9223960383531200E-01
C    2.7971965213742749E+01    1.6275384122481807E+01   -9.0061130443497706E-01
C    2.8714256154325444E+01    1.7489860947490065E+01   -8.7617001192922328E-01
C    3.0132747383970038E+01    1.7466936649384827E+01   -9.1295932036630845E-01
C    2.6627836931873272E+01    1.8761360994956561E+01   -9.1558678310520114E-01
C    2.8047389621017498E+01    1.8755928906448606E+01   -9.0458739354810780E-01
C    2.8804279930554788E+01    1.9995798027405449E+01   -8.9790499568675552E-01
C    3.0188015765733361E+01    1.9973923720836151E+01   -9.5920088234962630E-01
C    2.6639897552005653E+01    2.1231519334930333E+01   -1.0210849531481607E+00
C    2.8058877293251882E+01    2.1212533373646796E+01   -9.0318841862112220E-01
C    2.8705883063289246E+01    1.0115402569019288E+01   -8.9909596497480149E-01
C    3.0102462243790733E+01    1.0106942442331869E+01   -8.2083148587745114E-01
C    1.8046465900491548E+01    2.3666748401502392E+01   -9.4771268259483188E-01
C    1.9444179843794551E+01    2.3610510177096042E+01   -9.2045184010822956E-01
C    2.0179296430732588E+01    2.4875227925829599E+01   -8.9717124810255511E-01
C    2.1593453713616483E+01    2.4847473232253456E+01   -8.9816354840450729E-01
C    1.8045408256006073E+01    2.6134191365060609E+01   -9.0234299308049248E-01
C    1.9484157263704819E+01    2.6136699649034696E+01   -8.7507511498832080E-01
C    2.0184269930206725E+01    2.7376332676688186E+01   -7.7839134176081659E-01
C    2.1647279161719805E+01    2.7353678296481757E+01   -7.9887641845193769E-01
C    1.8088393319786718E+01    2.8605001866997352E+01   -8.6368907800986028E-01
C    1.9487772273197773E+01    2.8607203321409944E+01   -8.1013527137617791E-01
C    2.0238057576506709E+01    2.9846714649852661E+01   -7.5186218533314197E-01
C    2.1661580545213070E+01    2.9857096729814948E+01   -7.6129565500718943E-01
C    1.8084119881002625E+01    3.1054654779370935E+01   -7.1113060764057356E-01
C    1.9492211842980186E+01    3.1102521664266128E+01   -7.2088635392999523E-01
C    2.0193408077771156E+01    3.2340580583122531E+01   -6.9661425533922383E-01
C    2.1595295050540315E+01    3.2302648741589245E+01   -7.2420944666677467E-01
C    1.8018025361751604E+01    3.3495178105229911E+01   -5.5512316942454587E-01
C    1.9443989477625308E+01    3.3538231011479311E+01   -6.1086252490610704E-01
C    2.0142616220965795E+01    2.2395985187193013E+01   -9.6638743440990571E-01
C    2.1594769916937246E+01    2.2409408972080765E+01   -1.0073465544233311E+00
C    2.2305643131807905E+01    2.3642440807477133E+01   -8.9577700357407464E-01
C    2.3730293959806136E+01    2.3660717055808984E+01   -9.4164904692812046E-01
C    2.4463447672584358E+01    2.4872552464567153E+01   -9.7614510053271497E-01
C    2.5928234794307986E+01    2.4929564004334075E+01   -9.1093969442557210E-01
C    2.2341961726498369E+01    2.6096495033942464E+01   -9.0981329454345472E-01
C    2.3764951016943726E+01    2.6140235237778068E+01   -1.0325125738113543E+00
C    2.4487579741041611E+01    2.7387988864293330E+01   -1.0632197798970831E+00
C    2.5916002058979668E+01    2.7396117186905553E+01   -9.9396640905680478E-01
C    2.2339416026171932E+01    2.8567810208229716E+01   -8.6561401624735379E-01
C    2.3782105347038247E+01    2.8603279303336517E+01   -1.0570540454077926E+00
C    2.4486921796442427E+01    2.9859916935613491E+01   -9.8119198768734772E-01
C    2.5882104940416127E+01    2.9813810753583617E+01   -1.0017972511982145E+00
C    2.2339345953398997E+01    3.1079122517991490E+01   -7.6155871051889379E-01
C    2.3757824269698713E+01    3.1082240433395231E+01   -8.1334016493902783E-01
C    2.4449566427547289E+01    3.2335421047974563E+01   -9.1103125921352646E-01
C    2.5864544475228541E+01    3.2324647938249385E+01   -1.0541163013880732E+00
C    2.2300775698037466E+01    3.3526743997137118E+01   -7.0410099239052859E-01
C    2.3769280615038909E+01    3.3565307765046427E+01   -8.1646467808749379E-01
C    2.4453678106379098E+01    2.2459050464246261E+01   -1.0108450495657508E+00
C    2.5893485226967076E+01    2.2469392054987512E+01   -9.8394806737290996E-01
C    2.6646274513898359E+01    2.3684594309078829E+01   -9.7618475546779182E-01
C    2.8068654331087512E+01    2.3681946879214891E+01   -9.6109119905418794E-01
C    2.8800850025789153E+01    2.4889281039581530E+01   -9.1159347042576822E-01
C    3.0241074296408406E+01    2.4925789892046456E+01   -7.8710325349384036E-01
C    2.6646407388484043E+01    2.6176383726121809E+01   -8.5441379473739831E-01
C    2.8060945534841768E+01    2.6158994121436017E+01   -8.4386551443674707E-01
C    2.8766618311820746E+01    2.7385774564851921E+01   -8.0643904396347732E-01
C    3.0196755311948756E+01    2.7412346019303595E+01   -7.6181864641028396E-01
C    2.6615916764931168E+01    2.8618111209672868E+01   -9.6810084546937714E-01
C    2.8068240829433051E+01    2.8601738107426222E+01   -9.3263729192242339E-01
C    2.8746764531529468E+01    2.9858784126358263E+01   -9.6853513382600775E-01
C    3.0168686677897885E+01    2.9875214981037637E+01   -8.4459685266918272E-01
C    2.6544004040912867E+01    3.1092068268958879E+01   -1.0556895789223490E+00
C    2.7962741136308210E+01    3.1056512790987973E+01   -9.6937109177983183E-01
C    2.8691041504492112E+01    3.2261585219618723E+01   -8.9119450693772095E-01
C    3.0134600340530078E+01    3.2285989193408582E+01   -8.6567364813627956E-01
C    2.6579872855006652E+01    3.3552262886061484E+01   -1.0573786864660291E+00
C    2.8016506920614393E+01    3.3540463803739030E+01   -9.9210909877142539E-01
C    2.8783176573329968E+01    2.2439315356586409E+01   -9.0362751530602625E-01
C    3.0223078691950896E+01    2.2406278071557473E+01   -7.6016240495886545E-01
O    3.8321878003494732E+02    3.0044291286596444E+02    1.3079598997002387E+01
H    3.8363887890186237E+02    3.0067339356347179E+02    1.3969280000424748E+01
H    3.8219178470128844E+02    3.0063111360061981E+02    1.3103214160571245E+01
O    4.0539249373476412E+02    2.6416575464297676E+02    3.3750919193621480E+00
H    4.0506020953399508E+02    2.6320701749218318E+02    3.2087212242931846E+00
H    4.0465273918885242E+02    2.6463459925297451E+02    2.9432360211463346E+00
O    3.2422638730103967E+02    3.4344606391638524E+02    1.1886220770817696E+01
H    3.2419324845919607E+02    3.4314971707456289E+02    1.0972955624890311E+01
H    3.2507010202450459E+02    3.4306232637329555E+02    1.2105446708242992E+01
O    5.0509208507911541E+02    1.7804193004489142E+02    8.6573237751278711E+00
H    5.0563992223542590E+02    1.7722377826399722E+02    8.6826685130242751E+00
H    5.0558945956420933E+02    1.7878988331965888E+02    9.1451643499023483E+00
O    2.8978391811449120E+02    2.6418781613124577E+02    1.4484699065549957E+01
H    2.8913756497351886E+02    2.6347255139332412E+02    1.4774782558823242E+01
H    2.8919599753028132E+02    2.6496145829358858E+02    1.4248830947656655E+01
O    2.9604089525349855E+02    2.0682928791197614E+02    1.7366454086872317E+01
H    2.9568314696136429E+02    2.0587461449513634E+02    1.7443016548788695E+01
H    2.9683158019657395E+02    2.0697068014080097E+02    1.6848524130793496E+01
O    3.4780411254389691E+02    1.8815678253912611E+02    1.2237153610657396E+01
H    3.4773112715413959E+02    1.8801072268014931E+02    1.3203683770834513E+01
H    3.4832138614769821E+02    1.8743765748775729E+02    1.1807558449672213E+01
O    3.2392812910672563E+02    1.8632099567259675E+02    5.3650778802288679E+00
H    3.2452938966429383E+02    1.8635228245504041E+02    6.1346913263760374E+00
H    3.2364958574830837E+02    1.8726691895451134E+02    5.2266007699448735E+00
O    2.0367654989867097E+02    1.8535964818402627E+02    1.1200109185788204E+01
H    2.0363755594862218E+02    1.8444063727753249E+02    1.1495206296547154E+01
H    2.0428289209454982E+02    1.8579823639935174E+02    1.1854156894905470E+01
O    4.0841725777544178E+02    2.7655057606920758E+02    1.7938639553684649E+01
H    4.0817729554458930E+02    2.7570346898084853E+02    1.7430806125618130E+01
H    4.0895604166986874E+02    2.7627965281078900E+02    1.8727679448747789E+01
O    2.8186455096873397E+02    2.6405584779774824E+02    2.6502497491928545E+00
H    2.8096013931129943E+02    2.6449663899921518E+02    2.6506333221584497E+00
H    2.8172618299230226E+02    2.6312337976862040E+02    2.3688907267247354E+00
O    3.0935719361135665E+02    1.8440178551753388E+02    7.2286980007475021E+00
H    3.0998544776773861E+02    1.8483182915654703E+02    6.5246775357763394E+00
H    3.0910297497101556E+02    1.8510447147255985E+02    7.8468348714107101E+00
O    2.8173173034186198E+02    1.5661210651062538E+02    7.0150436786142034E+00
H    2.8167428189649496E+02    1.5568831626253223E+02    7.3244514287951796E+00
H    2.8268440551316081E+02    1.5672125595560161E+02    6.5671905642172472E+00
O    3.2911667008902378E+02    1.3010378025725169E+02    1.6784516460734945E+01
H    3.2840470501493974E+02    1.3032249254398607E+02    1.7416362253161925E+01
H    3.2978763308554284E+02    1.2965390669862279E+02    1.7277202640264345E+01
O    2.3156548746739890E+02    3.4853097575958657E+02    7.8787221729964232E+00
H    2.3130403690484820E+02    3.4800271985831102E+02    8.7115779156098441E+00
H    2.3081983007591725E+02    3.4833357134039591E+02    7.2657034365876045E+00
O    3.4059293499861855E+02    3.3340120170184332E+02    1.8054249348178889E+01
H    3.4110404065129114E+02    3.3422109696163682E+02    1.8262929176256229E+01
H    3.4130676231118241E+02    3.3275394121020963E+02    1.7711479914216145E+01
O    2.7044136021720198E+02    2.6529579655246687E+02    7.8753967865814296E+00
H    2.7060146342364328E+02    2.6577544284550260E+02    6.9514533556403810E+00
H    2.7031732102627291E+02    2.6429659119283650E+02    7.7889817271323460E+00
O    3.3034196098092787E+02    2.2129281990027519E+02    1.7847526560671202E+01
H    3.2939128480192494E+02    2.2165996815758314E+02    1.7738122839852409E+01
H    3.3025544790739275E+02    2.2035846976501594E+02    1.7541112007471821E+01
O    2.8696193922153958E+02    2.4683148091779469E+02    7.2413308930132620E+00
H    2.8727206443754284E+02    2.4596759582607120E+02    7.6108349597549010E+00