 # Version information for this restart file 
 # current date 2020-01-25 15:13:30.028
 # current working dir /scratch/snx3000/gtocci/gtocci/MEMBRANES/AIMD_US_IONS_BN/aimd_us_iodide/us_11
 # Program compiled at                              Fri Nov 22 15:19:42 CET 2019
 # Program compiled on                                                  daint102
 # Program compiled for                                   CRAY_XC50-gfortran_gpu
 # Source code revision number                                       git:a698b45
 &GLOBAL
   PRINT_LEVEL  LOW
   PROJECT_NAME BNS
   RUN_TYPE  MD
   WALLTIME 86400
 &END GLOBAL
 &MOTION
   &MD
     ENSEMBLE  NVT
     STEPS  2000
     TIMESTEP     9.9999999999999989E-01
     STEP_START_VAL  41378
     TIME_START_VAL     4.1377999999990090E+04
     ECONS_START_VAL    -8.4828697532288970E+03
     TEMPERATURE     3.0000000000000000E+02
     TEMP_KIND  T
     &BAROSTAT
       PRESSURE     1.0000000000000000E+00
       TIMECON     9.9999999999999986E+01
       VIRIAL  Z
     &END BAROSTAT
     &THERMOSTAT
       TYPE  NOSE
       REGION  GLOBAL
       &NOSE
         LENGTH  4
         TIMECON     9.9999999999999986E+01
         MTS  2
         &COORD
               3.6608861786670138E-01   -1.4856324590683174E+01   -1.0656870038928610E+00    1.9152854320654242E+01
         &END COORD
         &VELOCITY
              -2.9672239684812171E-06    3.0486686790826538E-04   -1.3881954256753914E-06    3.3492869119109336E-04
         &END VELOCITY
         &MASS
               7.0145132684705392E+07    1.6237299232570693E+04    1.6237299232570693E+04    1.6237299232570693E+04
         &END MASS
         &FORCE
              -1.7419363696303835E-09   -2.0474927748265964E-08    3.4433793298090653E-08   -5.8508086763565200E-08
         &END FORCE
       &END NOSE
     &END THERMOSTAT
     &AVERAGES  T
       &RESTART_AVERAGES
         ITIMES_START  1
         AVECPU     2.3896148832883071E+01
         AVEHUGONIOT     0.0000000000000000E+00
         AVETEMP_BARO     0.0000000000000000E+00
         AVEPOT    -8.4857903910202222E+03
         AVEKIN     2.0548117378137403E+00
         AVETEMP     3.0039696898840771E+02
         AVEKIN_QM     0.0000000000000000E+00
         AVETEMP_QM     0.0000000000000000E+00
         AVEVOL     2.2086622704880987E+05
         AVECELL_A     4.9287836997924984E+01
         AVECELL_B     4.7426456757032106E+01
         AVECELL_C     9.4486306644279694E+01
         AVEALPHA     9.0000000000000000E+01
         AVEBETA     9.0000000000000000E+01
         AVEGAMMA     9.0000000000000000E+01
         AVE_ECONS     4.9784279720151680E+01
         AVE_PRESS     0.0000000000000000E+00
         AVE_PXX     0.0000000000000000E+00
       &END RESTART_AVERAGES
     &END AVERAGES
     &PRINT
       &TEMP_KIND  SILENT
       &END TEMP_KIND
     &END PRINT
   &END MD
   &FREE_ENERGY
     &METADYN
       MIN_DISP    -1.0000000000000000E+00
       OLD_HILL_NUMBER  0
       OLD_HILL_STEP  0
       DO_HILLS  F
       STEP_START_VAL  41378
       NHILLS_START_VAL  0
       &METAVAR
         SCALE     1.0000000000000000E+00
         COLVAR  1
       &END METAVAR
       &PRINT
         &COLVAR  SILENT
           COMMON_ITERATION_LEVELS  3
           &EACH
             MD  1
           &END EACH
         &END COLVAR
       &END PRINT
     &END METADYN
   &END FREE_ENERGY
   &CONSTRAINT
     &COLLECTIVE
       COLVAR  1
       INTERMOLECULAR  T
       &RESTRAINT
         K     4.4625385281452931E-04
       &END RESTRAINT
     &END COLLECTIVE
     &COLVAR_RESTART
           1.0615827474823258E+01
     &END COLVAR_RESTART
   &END CONSTRAINT
   &PRINT
     &TRAJECTORY  SILENT
       &EACH
         MD  1
       &END EACH
     &END TRAJECTORY
     &VELOCITIES  SILENT
       &EACH
         MD  1
       &END EACH
     &END VELOCITIES
     &FORCES  SILENT
       UNIT eV*angstrom^-1
       &EACH
         MD  1
       &END EACH
     &END FORCES
     &RESTART  SILENT
       &EACH
         MD  1
       &END EACH
     &END RESTART
     &RESTART_HISTORY  SILENT
       &EACH
         MD  100
       &END EACH
     &END RESTART_HISTORY
   &END PRINT
 &END MOTION
 &FORCE_EVAL
   METHOD  QS
   &DFT
     BASIS_SET_FILE_NAME /users/gtocci/scratch_daint_3000/data_cp2k//BASIS_MOLOPT
     POTENTIAL_FILE_NAME /users/gtocci/scratch_daint_3000/data_cp2k//GTH_POTENTIALS
     WFN_RESTART_FILE_NAME ./BNS-RESTART.wfn
     CHARGE  -1
     &SCF
       MAX_SCF  10
       EPS_SCF     9.9999999999999995E-07
       SCF_GUESS  RESTART
       &OT  T
         MINIMIZER  DIIS
         PRECONDITIONER  FULL_KINETIC
       &END OT
       &OUTER_SCF  T
         EPS_SCF     9.9999999999999995E-07
         MAX_SCF  30
       &END OUTER_SCF
       &PRINT
         &RESTART  SILENT
           ADD_LAST  NUMERIC
           &EACH
             QS_SCF  50
           &END EACH
         &END RESTART
       &END PRINT
     &END SCF
     &QS
       MAP_CONSISTENT  T
       EXTRAPOLATION  ASPC
       EXTRAPOLATION_ORDER  4
     &END QS
     &MGRID
       NGRIDS  5
       CUTOFF     4.6000000000000000E+02
     &END MGRID
     &XC
       DENSITY_CUTOFF     1.0000000000000000E-10
       GRADIENT_CUTOFF     1.0000000000000000E-10
       TAU_CUTOFF     1.0000000000000000E-10
       &XC_GRID
         XC_DERIV  SPLINE2_SMOOTH
       &END XC_GRID
       &XC_FUNCTIONAL  NO_SHORTCUT
         &LIBXC  T
           FUNCTIONAL XC_GGA_X_OPTB88_VDW
         &END LIBXC
         &VWN  T
         &END VWN
       &END XC_FUNCTIONAL
       &VDW_POTENTIAL
         POTENTIAL_TYPE  NON_LOCAL
         &NON_LOCAL
           TYPE  DRSLL
           VERBOSE_OUTPUT  T
           KERNEL_FILE_NAME /users/gtocci/scratch_daint_3000/data_cp2k//vdW_kernel_table.dat
           CUTOFF     3.6000000000000000E+02
         &END NON_LOCAL
       &END VDW_POTENTIAL
     &END XC
     &REAL_TIME_PROPAGATION
       INITIAL_WFN  SCF_WFN
     &END REAL_TIME_PROPAGATION
     &PRINT
       &MULLIKEN  SILENT
         FILENAME =BNS.mulliken
       &END MULLIKEN
     &END PRINT
   &END DFT
   &SUBSYS
     &CELL
       A     2.6082000000000019E+01    0.0000000000000000E+00    0.0000000000000000E+00
       B     0.0000000000000000E+00    2.5097000000000001E+01    0.0000000000000000E+00
       C     0.0000000000000000E+00    0.0000000000000000E+00    5.0000000000000028E+01
       MULTIPLE_UNIT_CELL  1 1 1
     &END CELL
     &COORD
B   -7.0935015107686157E+00    4.1424411380782526E+00   -3.1001035265822516E+01
B   -4.9003921590717461E+00    5.3676582052837354E+00   -3.1066986957593208E+01
B   -7.1293722841838427E+00    6.6363945190515894E+00   -3.1019893682137983E+01
B   -5.0194668691765498E+00    7.8767415113102537E+00   -3.1001613111244403E+01
B   -7.1352224993622455E+00    9.1353734743871726E+00   -3.0931326605078070E+01
B   -4.9809356129448226E+00    1.0378356998967821E+01   -3.1110136153041246E+01
B   -7.1883000921896096E+00    1.1692221506413576E+01   -3.1113941693642545E+01
B   -4.9767667187499933E+00    1.2915463567614541E+01   -3.1216291957559424E+01
B   -7.1370328584087295E+00    1.4272727166710185E+01   -3.1017781525572694E+01
B   -5.0264246064769686E+00    1.5399679209313128E+01   -3.1177102996973101E+01
B   -2.7983288247482454E+00    4.1743402860178005E+00   -3.1036487843037325E+01
B   -6.5525369705243297E-01    5.4279142111826486E+00   -3.0940700263007145E+01
B   -2.8149142596474785E+00    6.6588122272166759E+00   -3.1037419827336272E+01
B   -6.4615913079910692E-01    7.8968426146102058E+00   -3.1037666711816247E+01
B   -2.8295212281987028E+00    9.0799004625296753E+00   -3.1016817251046348E+01
B   -6.6593746901623962E-01    1.0403677435052810E+01   -3.1224077843540474E+01
B   -2.7778860326359718E+00    1.1584636091335819E+01   -3.1282127815003427E+01
B   -6.0381755215405941E-01    1.2978943759362229E+01   -3.1292741261335099E+01
B   -2.7986726552570662E+00    1.4145283131357774E+01   -3.1290338986017286E+01
B   -6.3218112945951488E-01    1.5395309802226853E+01   -3.1282512693929061E+01
B    1.5283585184262340E+00    4.1696337837017978E+00   -3.0711753370094339E+01
B    3.7399325634598037E+00    5.4196876685291686E+00   -3.0582038318474847E+01
B    1.5388582878398989E+00    6.6410419344863243E+00   -3.1042165248034653E+01
B    3.6848953353925382E+00    7.8628419401780141E+00   -3.0799994894588142E+01
B    1.5432637177160520E+00    9.1395559239391186E+00   -3.1012820799156103E+01
B    3.6965108659612951E+00    1.0382764901006281E+01   -3.0892927713592240E+01
B    1.5533991731397210E+00    1.1637164154138681E+01   -3.1075671199548822E+01
B    3.6743314229314357E+00    1.2941618123543810E+01   -3.1063436110037138E+01
B    1.5393450979760006E+00    1.4220539608778958E+01   -3.1037490645024089E+01
B    3.7278387317870423E+00    1.5450533845897201E+01   -3.0995063461094400E+01
N   -5.6265539003088350E+00    4.1402255290800554E+00   -3.1038903435781133E+01
N   -3.5216457621863038E+00    5.4130653612746480E+00   -3.1156911909047277E+01
N   -5.6889088362093085E+00    6.6141861029344424E+00   -3.1112597596942667E+01
N   -3.6116543487254815E+00    7.8790193576493159E+00   -3.0997885672347468E+01
N   -5.6876845864524856E+00    9.1731651131847993E+00   -3.0916909579934600E+01
N   -3.5098716900182292E+00    1.0340720010730681E+01   -3.1175230360978247E+01
N   -5.6963772636367036E+00    1.1677401196897142E+01   -3.1123480739424902E+01
N   -3.5283187800953568E+00    1.2863336500672517E+01   -3.1235542109725671E+01
N   -5.7090528167827319E+00    1.4160073382695693E+01   -3.1141440211459368E+01
N   -3.5646901975612018E+00    1.5397531525354362E+01   -3.1257134960813005E+01
N   -1.4188849975173869E+00    4.1180631416658660E+00   -3.0791022017407403E+01
N    8.3590527162432748E-01    5.4114009152037106E+00   -3.0902696463431258E+01
N   -1.3423839896936571E+00    6.6491097674719954E+00   -3.1071188804144366E+01
N    7.6290722278513468E-01    7.9138013489409946E+00   -3.1090690591665769E+01
N   -1.4070919362913066E+00    9.1497003509113490E+00   -3.1103933365696321E+01
N    7.7297714228717262E-01    1.0389076768440820E+01   -3.1197599727586557E+01
N   -1.3456674962353852E+00    1.1671734604465609E+01   -3.1299737200760614E+01
N    8.8010202319070086E-01    1.2920574001020320E+01   -3.1097002750827382E+01
N   -1.3661246090833641E+00    1.4132857598919914E+01   -3.1392179760220365E+01
N    8.1815829767232140E-01    1.5465812048906335E+01   -3.1234949619271362E+01
N    2.9690626305767580E+00    4.1678279983911084E+00   -3.0523010419471461E+01
N    5.1841163157238785E+00    5.4106419752491508E+00   -3.0508768298845961E+01
N    2.9914458905716468E+00    6.6343619321552945E+00   -3.0842824118010906E+01
N    5.1774485333714750E+00    7.9174919705688085E+00   -3.0584824050132063E+01
N    2.9619586827515576E+00    9.1104239293491904E+00   -3.0866809400287803E+01
N    5.1113467315490286E+00    1.0352402163258622E+01   -3.0925568104285471E+01
N    2.9813003672479779E+00    1.1656170889611372E+01   -3.0949754114843483E+01
N    5.1641629725452818E+00    1.2947112153913428E+01   -3.1048507510409980E+01
N    2.9880727278011028E+00    1.4200809299370730E+01   -3.1040839453496062E+01
N    5.1419603849709681E+00    1.5494989314094241E+01   -3.1084374184553152E+01
B   -7.1408123324750044E+00    1.6712478187514890E+01   -3.1247912814451325E+01
B   -4.9459741846436209E+00    1.7967263713784348E+01   -3.1200522220446487E+01
B   -7.1398060571397188E+00    1.9235116391777048E+01   -3.1059057150639092E+01
B   -4.9821960001786580E+00    2.0480164693935276E+01   -3.0936950782318000E+01
B   -7.1144538890368390E+00    2.1717026946806993E+01   -3.0696568621142870E+01
B   -5.0118831634658561E+00    2.2976309893199726E+01   -3.0749471027157782E+01
B   -7.0937558260895184E+00    2.4280651464396986E+01   -3.0634486535478587E+01
B   -4.9293719243454728E+00    2.5463218146287872E+01   -3.0863463555063067E+01
B   -7.1396616979787124E+00    2.6787115914266355E+01   -3.0750470299311861E+01
B   -4.9709625905884476E+00    2.7960971352245760E+01   -3.1030995938903853E+01
B   -2.7893651190010833E+00    1.6699569576521991E+01   -3.1269933886752508E+01
B   -5.9554899679586248E-01    1.7940523444701888E+01   -3.1265907482039307E+01
B   -2.8226413608653420E+00    1.9198186126817756E+01   -3.1240086301686702E+01
B   -6.5032820818325887E-01    2.0432361914344433E+01   -3.1254478224593864E+01
B   -2.8571082322694905E+00    2.1735383772701564E+01   -3.1108648076826945E+01
B   -6.1935539161672648E-01    2.2935386843661476E+01   -3.1154260341706973E+01
B   -2.7729268190430680E+00    2.4230956342016999E+01   -3.0983395131262920E+01
B   -6.1527691751776048E-01    2.5484615807547492E+01   -3.1039508544824756E+01
B   -2.7891537891035343E+00    2.6732514426418845E+01   -3.1195577952722491E+01
B   -6.3032793672780985E-01    2.7973810855468408E+01   -3.0846785226445878E+01
B    1.5416438631156566E+00    1.6706194682574242E+01   -3.1247316803593833E+01
B    3.7249129316777712E+00    1.7965156239270922E+01   -3.1100102696946390E+01
B    1.5480213900239508E+00    1.9218686791839698E+01   -3.1229396715911331E+01
B    3.7292855677849479E+00    2.0425518912345183E+01   -3.0979192274987238E+01
B    1.5660078004363900E+00    2.1750693252890695E+01   -3.0984488046334540E+01
B    3.7492636094138407E+00    2.2964067222848737E+01   -3.0702974277017070E+01
B    1.5295886856037917E+00    2.4263935294053841E+01   -3.0884643127609074E+01
B    3.6548042132529708E+00    2.5492349018564578E+01   -3.0648540851914944E+01
B    1.5354704187767338E+00    2.6798848162305550E+01   -3.0678956619358306E+01
B    3.7051847058936898E+00    2.8009021742778078E+01   -3.0504677705767854E+01
N   -5.7263285410425926E+00    1.6684928518403542E+01   -3.1291350991634872E+01
N   -3.4896830217715467E+00    1.7941896622674804E+01   -3.1265964832746029E+01
N   -5.6963542517786063E+00    1.9229850671804531E+01   -3.1022104603040106E+01
N   -3.5714805947716597E+00    2.0453285143866573E+01   -3.1141707525429752E+01
N   -5.6880125573692402E+00    2.1716804243095591E+01   -3.0615555059872062E+01
N   -3.5860892298333447E+00    2.2977680307503725E+01   -3.0885298065360129E+01
N   -5.6804665604596165E+00    2.4266685513499290E+01   -3.0693150226343338E+01
N   -3.5493754853439041E+00    2.5468847952464085E+01   -3.1015947713096359E+01
N   -5.6589426192565213E+00    2.6726038254464783E+01   -3.0884149133457306E+01
N   -3.5285680064119740E+00    2.7995416006185334E+01   -3.1197401057907630E+01
N   -1.3299289480836292E+00    1.6680664838017496E+01   -3.1207744311717352E+01
N    8.6401106494481950E-01    1.7965599953476392E+01   -3.1324754718329878E+01
N   -1.3898767594690560E+00    1.9176547034649666E+01   -3.1290746624292407E+01
N    8.3923056555589304E-01    2.0512094295652229E+01   -3.1186720870435728E+01
N   -1.4459805797039433E+00    2.1695519634427473E+01   -3.1157208850573824E+01
N    8.0611426693250088E-01    2.2997162387172427E+01   -3.0980511182968765E+01
N   -1.3319392566488193E+00    2.4208359060993100E+01   -3.1159858119383948E+01
N    7.8966085933998775E-01    2.5495296274955606E+01   -3.0779924924464066E+01
N   -1.3552293244465474E+00    2.6731241868629986E+01   -3.1015817762785257E+01
N    8.0572704474136891E-01    2.8032188650693090E+01   -3.0723327764273836E+01
N    2.9925112808248127E+00    1.6697147711057706E+01   -3.1016071144448262E+01
N    5.1414333962788277E+00    1.7933404238596715E+01   -3.1142514155159262E+01
N    2.9489530924333951E+00    1.9213394519178596E+01   -3.1097491991116467E+01
N    5.1266747274023023E+00    2.0416995561591236E+01   -3.0998957000092158E+01
N    2.9893569362936709E+00    2.1746059694783945E+01   -3.0819034111418642E+01
N    5.1590114945621037E+00    2.2918117478639743E+01   -3.0673730381805441E+01
N    2.9546225693111454E+00    2.4216392843287156E+01   -3.0685016301482246E+01
N    5.1401213770980716E+00    2.5491685679667157E+01   -3.0614093376950269E+01
N    2.9791362197764228E+00    2.6775988621762053E+01   -3.0431391737197465E+01
N    5.1798568395182105E+00    2.7980941883371958E+01   -3.0465863280456176E+01
B    5.8981059938415026E+00    4.1701635261206400E+00   -3.0388455521137299E+01
B    8.1341823972672174E+00    5.4485671105394244E+00   -3.0534928623442553E+01
B    5.8765008307158935E+00    6.6717035858340337E+00   -3.0511388456642781E+01
B    8.0772591777336586E+00    7.9678895368777294E+00   -3.0668345533683159E+01
B    5.9057430899159638E+00    9.1648112015007399E+00   -3.0744498398254070E+01
B    8.0993323724885631E+00    1.0423113418662515E+01   -3.0696571306591373E+01
B    5.8312990195118548E+00    1.1661480727058843E+01   -3.0921718911855397E+01
B    8.0262128630696239E+00    1.2901417641970323E+01   -3.1000953863551114E+01
B    5.8874734289525437E+00    1.4255915062075289E+01   -3.1116342767112791E+01
B    8.0980137034369850E+00    1.5452425081707464E+01   -3.1110108804541060E+01
B    1.0265798033255759E+01    4.1222434418139544E+00   -3.0649265692011202E+01
B    1.2463749385971349E+01    5.4144910555801786E+00   -3.0695597818861035E+01
B    1.0279494919245694E+01    6.6494793638316922E+00   -3.0687837150056041E+01
B    1.2415432301109425E+01    7.9029519479788313E+00   -3.0738629752126570E+01
B    1.0278435050791574E+01    9.1860115001602569E+00   -3.0637085548409445E+01
B    1.2390159558508891E+01    1.0483978910288643E+01   -3.0686058662596970E+01
B    1.0202130178908458E+01    1.1679822167567975E+01   -3.0652920512159465E+01
B    1.2431946873698866E+01    1.2979874805287297E+01   -3.0712661131594015E+01
B    1.0287904390431596E+01    1.4181680101953669E+01   -3.1076901738567255E+01
B    1.2416533503914637E+01    1.5452203506410568E+01   -3.1138440104575835E+01
B    1.4642210479690656E+01    4.1499847713352569E+00   -3.0790295050412396E+01
B    1.6821014266396329E+01    5.4417340269479091E+00   -3.0927830955245387E+01
B    1.4623754325632261E+01    6.6783643671759947E+00   -3.0751155430647994E+01
B    1.6735642081942885E+01    7.9372061913549024E+00   -3.0877114051096868E+01
B    1.4558706214741290E+01    9.2069354984880327E+00   -3.0915306268526042E+01
B    1.6737339540982816E+01    1.0369885485417052E+01   -3.1026547194000933E+01
B    1.4589066284686588E+01    1.1722266933487465E+01   -3.0750791029887090E+01
B    1.6771025485733215E+01    1.2933241256880514E+01   -3.0973843172596798E+01
B    1.4602565417284035E+01    1.4265404107472072E+01   -3.0882096025406714E+01
B    1.6793554750630594E+01    1.5441734264247964E+01   -3.1073379688983277E+01
N    7.3759889739805802E+00    4.1375482653844946E+00   -3.0360846700540513E+01
N    9.5799211793403867E+00    5.3981163370921257E+00   -3.0690748339371662E+01
N    7.3445772003866434E+00    6.6675631540746041E+00   -3.0615130296876838E+01
N    9.5242985906536735E+00    7.8829063721548476E+00   -3.0729655825293190E+01
N    7.3350171645899813E+00    9.1789937547329412E+00   -3.0771726916967737E+01
N    9.5444251458530260E+00    1.0409036997890452E+01   -3.0628779295190963E+01
N    7.2917416093364089E+00    1.1667667142077722E+01   -3.0842814624230360E+01
N    9.5092340762548240E+00    1.2879327768771622E+01   -3.0996222216599488E+01
N    7.3001848576671593E+00    1.4211282117559639E+01   -3.1083215181780581E+01
N    9.5383936957716671E+00    1.5409607145990007E+01   -3.1254133968579758E+01
N    1.1710251235095928E+01    4.1683918710124646E+00   -3.0772813332311085E+01
N    1.3933994684074518E+01    5.3867390802412114E+00   -3.0734984173244587E+01
N    1.1728767266899515E+01    6.6630850228034424E+00   -3.0660344264485907E+01
N    1.3852816456082321E+01    7.9166214484038608E+00   -3.0880981938007150E+01
N    1.1702658241602865E+01    9.1668233754277164E+00   -3.0693522112298457E+01
N    1.3838915582110232E+01    1.0460926924847881E+01   -3.0825728520563672E+01
N    1.1672137448484071E+01    1.1735680551831713E+01   -3.0466389993401702E+01
N    1.3879888985396974E+01    1.3052715151096853E+01   -3.0683484329495840E+01
N    1.1722452746652353E+01    1.4260826353599514E+01   -3.0957566162682923E+01
N    1.3907474342742352E+01    1.5480831640369697E+01   -3.1104821734050081E+01
N    1.6070080065275725E+01    4.1720156559190213E+00   -3.0899572230504891E+01
N    1.8274102943245666E+01    5.3514380113304281E+00   -3.1065529737539610E+01
N    1.6054037069201829E+01    6.6495354558098381E+00   -3.0910027984088533E+01
N    1.8216384640574322E+01    7.8879753560626007E+00   -3.0851994926903082E+01
N    1.5991024893344781E+01    9.1478173291189915E+00   -3.1075706836936373E+01
N    1.8213938459057591E+01    1.0358923733580342E+01   -3.1086114143481080E+01
N    1.6094746048914121E+01    1.1653744154863405E+01   -3.0844441455035696E+01
N    1.8235434907773676E+01    1.2950816703268794E+01   -3.1047907510195628E+01
N    1.6101397134728785E+01    1.4224543222618157E+01   -3.0815299463305617E+01
N    1.8206120217687079E+01    1.5475475996999368E+01   -3.1104894307720922E+01
B    5.9101440520165101E+00    1.6716282412792502E+01   -3.1102662161759696E+01
B    8.1210328269825531E+00    1.7899579673487434E+01   -3.1210532019507603E+01
B    5.8871865608713243E+00    1.9181262916561213E+01   -3.1095354099005725E+01
B    8.0855549142762726E+00    2.0421878094291888E+01   -3.1044431711000851E+01
B    5.9060890309244156E+00    2.1670430608067317E+01   -3.0816089582087443E+01
B    8.0147623217093855E+00    2.2928461796024092E+01   -3.0969336714660258E+01
B    5.8614910935439362E+00    2.4257538645215050E+01   -3.0692433526102835E+01
B    8.0365908604086549E+00    2.5460390305383676E+01   -3.0713146326363244E+01
B    5.9080194178892924E+00    2.6730421687699845E+01   -3.0549921832915487E+01
B    8.0470152549174436E+00    2.7987037956143595E+01   -3.0483571315770210E+01
B    1.0274554311116498E+01    1.6699221093681970E+01   -3.1192702972320937E+01
B    1.2403109222035777E+01    1.7973689064545646E+01   -3.1346744909021041E+01
B    1.0230187920235339E+01    1.9172318379271982E+01   -3.1215128236574127E+01
B    1.2468490139678952E+01    2.0427746990033317E+01   -3.1095666719877876E+01
B    1.0236597383367496E+01    2.1700143303542458E+01   -3.1044861966949089E+01
B    1.2454994130948631E+01    2.2903204300055201E+01   -3.0975439435856785E+01
B    1.0202509300103859E+01    2.4194490383846695E+01   -3.0965136954707081E+01
B    1.2424372573192073E+01    2.5418394624710615E+01   -3.0836429252629436E+01
B    1.0230991433745247E+01    2.6701546448049687E+01   -3.0782079481136119E+01
B    1.2449913716393974E+01    2.7943096462933756E+01   -3.0666896989722087E+01
B    1.4592750634029592E+01    1.6714587363273360E+01   -3.1190420879715486E+01
B    1.6796588526988302E+01    1.7941297632506767E+01   -3.1199403405462085E+01
B    1.4681658758419092E+01    1.9183495911059737E+01   -3.1205735747431312E+01
B    1.6764894704542268E+01    2.0475318322857859E+01   -3.0941188200795803E+01
B    1.4563431038621959E+01    2.1684595230672880E+01   -3.0948810357992119E+01
B    1.6751355960263972E+01    2.2971036205622067E+01   -3.0580087595119391E+01
B    1.4641750909455236E+01    2.4183109993381173E+01   -3.0759088727068455E+01
B    1.6830785308309828E+01    2.5484362091188025E+01   -3.0673267154350473E+01
B    1.4569769618980869E+01    2.6741590282270405E+01   -3.0853763550207276E+01
B    1.6762968420613241E+01    2.7993578837647828E+01   -3.0881259801685641E+01
N    7.3799824589879313E+00    1.6705117177719902E+01   -3.1088415362124064E+01
N    9.5311424073553361E+00    1.7957420104929763E+01   -3.1115851225800874E+01
N    7.3412718144119289E+00    1.9159985386397960E+01   -3.1109270578334797E+01
N    9.5076889408176921E+00    2.0415727794142303E+01   -3.1180117623965725E+01
N    7.3447540721681452E+00    2.1700760847810194E+01   -3.0952256270673868E+01
N    9.4783845563289031E+00    2.2944602833976123E+01   -3.0860453059691206E+01
N    7.3127078119703954E+00    2.4186600046117903E+01   -3.0784568255313008E+01
N    9.5109109643311349E+00    2.5455411507547947E+01   -3.0922067866132753E+01
N    7.3573914344729872E+00    2.6717123900367149E+01   -3.0546893151077285E+01
N    9.5270264407835938E+00    2.7989649938787935E+01   -3.0733576378454938E+01
N    1.1697008819595123E+01    1.6720607946484087E+01   -3.1259573828953243E+01
N    1.3911908424045288E+01    1.7977191424614443E+01   -3.1318784315883072E+01
N    1.1669362271766230E+01    1.9192048914149485E+01   -3.1287023404988670E+01
N    1.3912342912356113E+01    2.0429433316499995E+01   -3.1075706342916551E+01
N    1.1727675664271674E+01    2.1660006234233006E+01   -3.1030504467532730E+01
N    1.3888417106009593E+01    2.2975665836701886E+01   -3.0918188317774092E+01
N    1.1687428555779904E+01    2.4149209861934548E+01   -3.0934961960601267E+01
N    1.3894042454189542E+01    2.5418473646014878E+01   -3.0883315530538130E+01
N    1.1711381822718423E+01    2.6691081860925312E+01   -3.0724433185373531E+01
N    1.3897109877800338E+01    2.7971802566567845E+01   -3.0750393044195871E+01
N    1.6039156159247252E+01    1.6717226470535131E+01   -3.1159726494875766E+01
N    1.8231797322474979E+01    1.7992536488388954E+01   -3.1239185782932605E+01
N    1.6084674584655730E+01    1.9184634021464394E+01   -3.1125800233752908E+01
N    1.8259198533742982E+01    2.0448944928452299E+01   -3.0830227761981067E+01
N    1.6040596697386793E+01    2.1767711098359619E+01   -3.0881734246035979E+01
N    1.8208206759121254E+01    2.2979900137375331E+01   -3.0630739202057065E+01
N    1.6104838515364584E+01    2.4233061074126415E+01   -3.0664024302174543E+01
N    1.8266478361099828E+01    2.5544981190175658E+01   -3.0624413804893791E+01
N    1.6026029067171269E+01    2.6728143753957369E+01   -3.0862940903006361E+01
N    1.8221512026701280E+01    2.7998675359888793E+01   -3.0943344618065009E+01
O    2.3880253125355580E+01    5.4853261276139627E+01   -2.5488759414866639E+01
H    2.3565735531386217E+01    5.4745618713636247E+01   -2.6436319765245511E+01
H    2.4835857974370370E+01    5.4618191238784590E+01   -2.5393658074894660E+01
O    2.2043113280715858E+01   -2.4614860720777308E+01   -2.5392739041076119E+01
H    2.2219353959637935E+01   -2.3801347966928276E+01   -2.4815684763655657E+01
H    2.1618024782012082E+01   -2.4290091243692348E+01   -2.6227918152963635E+01
O    2.6077026776318935E+01    6.7987730899804063E+01   -2.8218407286116040E+01
H    2.6455118056053589E+01    6.8464517581399534E+01   -2.7399704677736043E+01
H    2.6666490751524215E+01    6.8431016086947437E+01   -2.8878716632298328E+01
O    3.1766905331936517E+00   -1.0751836958277318E+01   -1.5460251122232050E+01
H    3.3438926374101863E+00   -1.0190583086510571E+01   -1.4685524678880045E+01
H    2.3215602207723784E+00   -1.1195379163574577E+01   -1.5161634156091260E+01
O    5.8517098515662518E+01   -3.0344107137054856E+01   -1.8994337457026585E+01
H    5.9154591579625247E+01   -3.0718914814606585E+01   -1.9683414581462443E+01
H    5.8231229275800764E+01   -3.1151326927007101E+01   -1.8504793617212233E+01
O   -1.0557764496190911E+01   -5.5110760450669687E+01   -1.5118116969418393E+01
H   -1.0057818927395498E+01   -5.5652318765748944E+01   -1.5755414126988416E+01
H   -1.1529843212080518E+01   -5.5017124543258916E+01   -1.5485792776260361E+01
O    5.3514348910666889E+01   -2.6416457179557352E+01   -1.3899754847734402E+01
H    5.4379293858508895E+01   -2.6022405065655871E+01   -1.3906095384630181E+01
H    5.2889218163612512E+01   -2.5665288230605849E+01   -1.4242972478668532E+01
O    2.3692679918088935E+01   -4.6876654494941235E+01   -1.6123303570272050E+01
H    2.3855121986149111E+01   -4.7147576316208827E+01   -1.5197634423424352E+01
H    2.3816158735452351E+01   -4.5930975060434960E+01   -1.6359596227433162E+01
O    2.4781481456781211E+01    3.4123473501794273E+01   -2.2756851503608011E+01
H    2.4228913822940743E+01    3.4934059804451408E+01   -2.2635868952790034E+01
H    2.5566986427512482E+01    3.4229609012514992E+01   -2.2176714567106970E+01
O    8.0401905967189857E-01   -1.1738975920572388E+01   -1.4617487120354593E+01
H    1.1814679136088160E-01   -1.1585025271730105E+01   -1.5314533529809532E+01
H    8.2203672995847732E-01   -1.2662933727326461E+01   -1.4249863609940508E+01
O   -1.7999802069588247E+00   -1.6427483911827856E+01   -1.8379688339123451E+01
H   -1.4066878788317994E+00   -1.6908166044108260E+01   -1.9212961446918346E+01
H   -1.0623896827471033E+00   -1.6414874976382361E+01   -1.7734834167337230E+01
O    3.1112787435840774E+00    1.7517024188495757E+01   -2.4280076434553088E+01
H    3.0542178194813561E+00    1.6548820653490385E+01   -2.4017453754140103E+01
H    2.2785378678606580E+00    1.7640392808058916E+01   -2.4799780439717132E+01
O    9.8500134251673487E+01    2.8620937022118532E+01   -1.5328977145434363E+01
H    9.8848541806143970E+01    2.8545373087561202E+01   -1.6232088134771548E+01
H    9.7511500832103323E+01    2.8939946013291230E+01   -1.5319936504906654E+01
O    5.7025981636468572E+01    2.6275792963047149E+01   -2.1745052247925504E+01
H    5.7096726295202387E+01    2.7256532451355071E+01   -2.1877660866986087E+01
H    5.6092335293512420E+01    2.6089813669768244E+01   -2.1565849460845705E+01
O    2.0544149417049518E+01    7.3030655714230863E-01   -1.5027648539265316E+01
H    2.0174194719025728E+01    1.6557725678661233E+00   -1.4944931099421037E+01
H    2.0393695737229436E+01    4.0317629718378678E-01   -1.6005196607699432E+01
O    6.2006974598384808E+01    1.7976246646969816E+01   -1.6305569975240410E+01
H    6.1292509524932392E+01    1.8642453023972340E+01   -1.6341480106692853E+01
H    6.2265280908445732E+01    1.7977215982663783E+01   -1.7218359279168176E+01
O    1.2882055617667680E+00   -2.7489609130223522E+00   -1.6111819075757548E+01
H    1.9048177800370365E+00   -3.5239435030432298E+00   -1.6072363592613986E+01
H    1.3646567688674656E+00   -2.2535433357261261E+00   -1.5262885510107067E+01
O    1.4320798992416838E+01   -2.4740651941332271E+01   -2.3073871175729195E+01
H    1.3580642866825738E+01   -2.4114635434622034E+01   -2.2853459898223328E+01
H    1.4661277933109174E+01   -2.4612951453344721E+01   -2.3947405800397945E+01
O    7.5696682480554585E+01   -2.5846446653329952E+01   -2.8164435877026534E+01