 # Version information for this restart file 
 # current date 2019-01-28 11:15:01.618
 # current working dir /scratch/snx3000/gtocci/gtocci/MEMBRANES/AIMD_US_IONS_GRA/potassium/aimd_us_pot/us_8
 # Program compiled at                             Thu Oct 11 21:49:41 CEST 2018
 # Program compiled on                                                  daint104
 # Program compiled for                                   CRAY_XC50-gfortran_gpu
 # Source code revision number                                     git:be74c20a5
 &GLOBAL
   PRINT_LEVEL  LOW
   PROJECT_NAME GRAS
   RUN_TYPE  MD
   WALLTIME 10200
 &END GLOBAL
 &MOTION
   &MD
     ENSEMBLE  NVT
     STEPS  100000
     TIMESTEP     9.9999999999999989E-01
     STEP_START_VAL  40859
     TIME_START_VAL     4.0858999999990599E+04
     ECONS_START_VAL    -8.3208705992256764E+03
     TEMPERATURE     3.0000000000000000E+02
     TEMP_KIND  T
     &BAROSTAT
       PRESSURE     1.0000000000000000E+00
       TIMECON     9.9999999999999986E+01
       VIRIAL  Z
     &END BAROSTAT
     &THERMOSTAT
       TYPE  NOSE
       REGION  GLOBAL
       &NOSE
         LENGTH  4
         TIMECON     9.9999999999999986E+01
         MTS  2
         &COORD
               8.1928982845814860E-02    1.0847602877384805E+01    2.6541820157332857E+01   -2.5476062927611487E+01
         &END COORD
         &VELOCITY
              -8.7980262490527455E-08   -2.6031509533052738E-04    2.6562825632841402E-04    2.1608389879380338E-04
         &END VELOCITY
         &MASS
               7.0145132684705392E+07    1.6237299232570693E+04    1.6237299232570693E+04    1.6237299232570693E+04
         &END MASS
         &FORCE
              -1.1051839190360889E-09   -5.8476574775245335E-08    9.2539350068364845E-09    1.2048356709968560E-08
         &END FORCE
       &END NOSE
     &END THERMOSTAT
     &AVERAGES  T
       &RESTART_AVERAGES
         ITIMES_START  1
         AVECPU     4.6543000357954753E+01
         AVEHUGONIOT     0.0000000000000000E+00
         AVETEMP_BARO     0.0000000000000000E+00
         AVEPOT    -8.3232580397361999E+03
         AVEKIN     2.0528977655366920E+00
         AVETEMP     3.0011716161716799E+02
         AVEKIN_QM     0.0000000000000000E+00
         AVETEMP_QM     0.0000000000000000E+00
         AVEVOL     2.1331414786628101E+05
         AVECELL_A     4.8437460238125460E+01
         AVECELL_B     4.6608961231944633E+01
         AVECELL_C     9.4486306644279523E+01
         AVEALPHA     9.0000000000000057E+01
         AVEBETA     9.0000000000000057E+01
         AVEGAMMA     9.0000000000000057E+01
         AVE_ECONS    -1.9984741805055948E+00
         AVE_PRESS     0.0000000000000000E+00
         AVE_PXX     0.0000000000000000E+00
       &END RESTART_AVERAGES
     &END AVERAGES
     &PRINT
       &TEMP_KIND  SILENT
       &END TEMP_KIND
     &END PRINT
   &END MD
   &FREE_ENERGY
     &METADYN
       MIN_DISP    -1.0000000000000000E+00
       OLD_HILL_NUMBER  0
       OLD_HILL_STEP  0
       DO_HILLS  F
       STEP_START_VAL  40859
       NHILLS_START_VAL  0
       &METAVAR
         SCALE     1.0000000000000000E+00
         COLVAR  1
       &END METAVAR
       &PRINT
         &COLVAR  SILENT
           COMMON_ITERATION_LEVELS  3
           &EACH
             MD  1
           &END EACH
         &END COLVAR
       &END PRINT
     &END METADYN
   &END FREE_ENERGY
   &CONSTRAINT
     &COLLECTIVE
       COLVAR  1
       INTERMOLECULAR  T
       &RESTRAINT
         K     4.4625385281452931E-04
       &END RESTRAINT
     &END COLLECTIVE
     &COLVAR_RESTART
           7.5589045315425745E+00
     &END COLVAR_RESTART
   &END CONSTRAINT
   &PRINT
     &TRAJECTORY  SILENT
       &EACH
         MD  1
       &END EACH
     &END TRAJECTORY
     &VELOCITIES  SILENT
       &EACH
         MD  1
       &END EACH
     &END VELOCITIES
     &FORCES  SILENT
       UNIT eV*angstrom^-1
       &EACH
         MD  1
       &END EACH
     &END FORCES
     &RESTART  SILENT
       &EACH
         MD  1
       &END EACH
     &END RESTART
     &RESTART_HISTORY  SILENT
       &EACH
         MD  100
       &END EACH
     &END RESTART_HISTORY
   &END PRINT
 &END MOTION
 &FORCE_EVAL
   METHOD  QS
   &DFT
     BASIS_SET_FILE_NAME /users/gtocci/scratch_daint_3000/data_cp2k//BASIS_MOLOPT
     POTENTIAL_FILE_NAME /users/gtocci/scratch_daint_3000/data_cp2k//GTH_POTENTIALS
     WFN_RESTART_FILE_NAME ./GRAS-RESTART.wfn
     CHARGE  1
     &SCF
       MAX_SCF  10
       EPS_SCF     9.9999999999999995E-07
       SCF_GUESS  RESTART
       &OT  T
         MINIMIZER  DIIS
         PRECONDITIONER  FULL_KINETIC
       &END OT
       &OUTER_SCF  T
         EPS_SCF     9.9999999999999995E-07
         MAX_SCF  30
       &END OUTER_SCF
       &PRINT
         &RESTART  SILENT
           ADD_LAST  NUMERIC
           &EACH
             QS_SCF  50
           &END EACH
         &END RESTART
       &END PRINT
     &END SCF
     &QS
       MAP_CONSISTENT  T
       EXTRAPOLATION  ASPC
       EXTRAPOLATION_ORDER  4
     &END QS
     &MGRID
       NGRIDS  5
       CUTOFF     4.6000000000000000E+02
     &END MGRID
     &XC
       DENSITY_CUTOFF     1.0000000000000000E-10
       GRADIENT_CUTOFF     1.0000000000000000E-10
       TAU_CUTOFF     1.0000000000000000E-10
       &XC_GRID
         XC_DERIV  SPLINE2_SMOOTH
       &END XC_GRID
       &XC_FUNCTIONAL  NO_SHORTCUT
         &LIBXC  T
           FUNCTIONAL XC_GGA_X_OPTB88_VDW
         &END LIBXC
         &VWN  T
         &END VWN
       &END XC_FUNCTIONAL
       &VDW_POTENTIAL
         POTENTIAL_TYPE  NON_LOCAL
         &NON_LOCAL
           TYPE  DRSLL
           VERBOSE_OUTPUT  T
           KERNEL_FILE_NAME /users/gtocci/scratch_daint_3000/data_cp2k//vdW_kernel_table.dat
         &END NON_LOCAL
       &END VDW_POTENTIAL
     &END XC
     &REAL_TIME_PROPAGATION
       INITIAL_WFN  SCF_WFN
     &END REAL_TIME_PROPAGATION
     &PRINT
       &MULLIKEN  SILENT
         FILENAME =GRAS.mulliken
       &END MULLIKEN
     &END PRINT
   &END DFT
   &SUBSYS
     &CELL
       A     2.5632000000000001E+01    0.0000000000000000E+00    0.0000000000000000E+00
       B     0.0000000000000000E+00    2.4664400000000022E+01    0.0000000000000000E+00
       C     0.0000000000000000E+00    0.0000000000000000E+00    5.0000000000000028E+01
       MULTIPLE_UNIT_CELL  1 1 1
     &END CELL
     &COORD
C    1.2815681512264996E+01   -1.1234162746139576E+01    1.9405064570962942E+00
C    1.4199721040316678E+01   -1.1179803712712673E+01    1.8983354601032880E+00
C    1.4946088623761840E+01   -9.9759745888277536E+00    1.9244149237960555E+00
C    1.6332922718656622E+01   -1.0018271119781584E+01    1.7539265262420300E+00
C    1.2844300319151150E+01   -8.7502009298445866E+00    1.9249430977557733E+00
C    1.4243508187798998E+01   -8.7248293262730297E+00    1.9190682691696290E+00
C    1.4925086106591406E+01   -7.5231454512102323E+00    1.8996565728492598E+00
C    1.6354853524565531E+01   -7.5126481250419417E+00    1.7986468321226230E+00
C    1.2786951214322595E+01   -6.2497506941468952E+00    1.8541733912561573E+00
C    1.4226031709059033E+01   -6.2837482499762229E+00    1.8892390541056736E+00
C    1.4949252964958529E+01   -5.0415434441637688E+00    1.8875735635775741E+00
C    1.6397412363269616E+01   -5.0758921576376226E+00    1.8901344305664789E+00
C    1.2767601246145903E+01   -3.7798848410195638E+00    1.8032391275560851E+00
C    1.4187646437543432E+01   -3.8024326295424342E+00    1.8310401550797757E+00
C    1.4880347896821162E+01   -2.5644020462507879E+00    1.7996744969959653E+00
C    1.6300254704016382E+01   -2.5521559489212251E+00    1.7992795752299511E+00
C    1.2737436659675383E+01   -1.2941480416098290E+00    1.6325462253123761E+00
C    1.4176615817985219E+01   -1.3459097638528332E+00    1.6866833716230762E+00
C    1.4894731926662622E+01   -1.2420573106207938E+01    1.7156922401985240E+00
C    1.6322425404850392E+01   -1.2479186095659921E+01    1.5519276536844511E+00
C    1.7044036003231518E+01   -1.1209690784561063E+01    1.5880196807084344E+00
C    1.8457357608842376E+01   -1.1224923023772661E+01    1.3470952877737661E+00
C    1.9174419227229794E+01   -9.9842933039654689E+00    1.3305732251350471E+00
C    2.0612758604499245E+01   -9.9605467423462954E+00    1.1986421403176724E+00
C    1.7097335819258866E+01   -8.7645274733001415E+00    1.7404557109240044E+00
C    1.8516420242318620E+01   -8.7351160161746950E+00    1.5709464892570362E+00
C    1.9213702160479507E+01   -7.5110817685849609E+00    1.5763489233045083E+00
C    2.0628162568490911E+01   -7.4691366715543230E+00    1.3156678538436004E+00
C    1.7113762178568312E+01   -6.2912759809628858E+00    1.7973300302638826E+00
C    1.8512733133071443E+01   -6.2741161301131152E+00    1.7052813135553053E+00
C    1.9220272141786122E+01   -5.0050668659992459E+00    1.6789308723926619E+00
C    2.0642296136931883E+01   -4.9991964013663406E+00    1.4932306662592272E+00
C    1.7078995521944506E+01   -3.7871782027904239E+00    1.9107918091387355E+00
C    1.8512556138963486E+01   -3.7680566996227314E+00    1.8262286030921013E+00
C    1.9185637621638826E+01   -2.5671665314746184E+00    1.6665781949462746E+00
C    2.0578264674895117E+01   -2.5095824217255540E+00    1.7412399019113320E+00
C    1.7038499667188596E+01   -1.3374088292702624E+00    1.6046465637542946E+00
C    1.8445410802849910E+01   -1.3286933577405526E+00    1.5683871880599749E+00
C    1.9203945204133678E+01   -1.2445778742787981E+01    1.2585546875912927E+00
C    2.0630985881241294E+01   -1.2427387264426796E+01    1.1985961716916689E+00
C    2.1319649091981919E+01   -1.1206293423804263E+01    1.1418972384474231E+00
C    2.2762297982496488E+01   -1.1186473887161393E+01    1.0810425950262545E+00
C    2.3494491573457697E+01   -9.9694968799904906E+00    1.1139816059157535E+00
C    2.4920781164303705E+01   -9.9921098534544601E+00    1.2627402438631028E+00
C    2.1323381531574814E+01   -8.6949014850156079E+00    1.1618290691321014E+00
C    2.2767412049065047E+01   -8.7412332920684594E+00    1.1342022918770682E+00
C    2.3483321252675708E+01   -7.4994282684282050E+00    1.2678936709691278E+00
C    2.4948136208378173E+01   -7.5103717038353217E+00    1.3110962864356290E+00
C    2.1335015728160361E+01   -6.2286309467384848E+00    1.3338501313931264E+00
C    2.2773173638068855E+01   -6.2703522805574794E+00    1.3378636700225137E+00
C    2.3465242292133947E+01   -5.0156921673345618E+00    1.4916600634969721E+00
C    2.4891338183458242E+01   -5.0261927305188143E+00    1.5336330228795827E+00
C    2.1317282933678463E+01   -3.7782766552028808E+00    1.6275689838272396E+00
C    2.2774479979951014E+01   -3.7924880457044634E+00    1.6319886119617313E+00
C    2.3489531026783933E+01   -2.5189058348407123E+00    1.7884518927427679E+00
C    2.4884378861711987E+01   -2.5443563353435201E+00    1.7045267539737754E+00
C    2.1276022308830754E+01   -1.2826166810795550E+00    1.7943643723075835E+00
C    2.2715879956232278E+01   -1.2954530181211890E+00    1.8338796910358657E+00
C    2.3473297801754136E+01   -1.2439341931154424E+01    1.1037540226243403E+00
C    2.4916400166507781E+01   -1.2447481103105718E+01    1.2065233610556101E+00
C    1.2762562502326404E+01    1.1562594185085784E+00    1.7378697752995826E+00
C    1.4174466554724338E+01    1.1397593121216734E+00    1.6658695839356092E+00
C    1.4862890615298888E+01    2.3755442917391125E+00    1.6566948438628983E+00
C    1.6309762340574970E+01    2.3883702262880764E+00    1.5981123825115395E+00
C    1.2755348781807504E+01    3.6140786220877521E+00    1.8541022869906716E+00
C    1.4192861407361256E+01    3.6032580707830073E+00    1.7867356567771802E+00
C    1.4890970978171124E+01    4.8325280090930907E+00    1.8582537459309014E+00
C    1.6313864973754285E+01    4.8375324828858481E+00    1.8057752727895637E+00
C    1.2732606024281406E+01    6.0848279859138223E+00    1.8873394685618112E+00
C    1.4195397355116459E+01    6.0861864400196692E+00    1.8601430757436173E+00
C    1.4915161248705028E+01    7.3185787423460296E+00    1.7519910849410716E+00
C    1.6350358202313615E+01    7.2791883768654735E+00    1.7042458406663947E+00
C    1.2710947734065575E+01    8.5271625993268874E+00    1.7396528613369981E+00
C    1.4174868048427113E+01    8.5240290950987756E+00    1.6511068619732037E+00
C    1.4898627648203794E+01    9.7604477556507376E+00    1.5769345076578580E+00
C    1.6359312248597792E+01    9.7189304280889228E+00    1.5516354722421379E+00
C    1.2765579390729807E+01    1.1000342913478752E+01    1.8005396554019510E+00
C    1.4150508178392078E+01    1.0997663737792854E+01    1.7296139290771633E+00
C    1.4880378506901250E+01   -1.1154690651618948E-01    1.6320051516505243E+00
C    1.6331086204874822E+01   -1.1134179540431317E-01    1.5121578468204302E+00
C    1.7006646645179256E+01    1.1307167232313793E+00    1.4395658950642840E+00
C    1.8420821919064927E+01    1.1613868996963272E+00    1.5273683462501682E+00
C    1.9158086991214343E+01    2.3898330050365235E+00    1.5973847809394142E+00
C    2.0576511647272206E+01    2.3617750888553544E+00    1.7014777622763266E+00
C    1.7051301025244435E+01    3.6190181684534406E+00    1.7507031380851992E+00
C    1.8453887158823893E+01    3.6271973566970033E+00    1.6457007824309258E+00
C    1.9175116737474170E+01    4.8436608096991494E+00    1.6151389071729658E+00
C    2.0617319844279983E+01    4.8230651257359058E+00    1.5993204108274306E+00
C    1.7060933178854864E+01    6.0722922745470091E+00    1.7929884537487348E+00
C    1.8483283142865876E+01    6.0814734042227521E+00    1.6417364980307947E+00
C    1.9204524032364898E+01    7.2967365973067393E+00    1.4046855646575480E+00
C    2.0632785840971088E+01    7.2977884610599997E+00    1.3421785078654207E+00
C    1.7085792076051384E+01    8.4797994104416610E+00    1.5503381420026381E+00
C    1.8489564860837348E+01    8.4937016976138739E+00    1.3774229391729944E+00
C    1.9173310512784770E+01    9.7402824894270896E+00    1.2630943454297745E+00
C    2.0620933338929856E+01    9.7581873592655235E+00    1.1690409949693013E+00
C    1.7038828671181879E+01    1.0955900043713379E+01    1.4353531988488542E+00
C    1.8472167218945064E+01    1.0968999909267520E+01    1.3080689347436683E+00
C    1.9158231562687892E+01   -5.5334221457130003E-02    1.6421076773979610E+00
C    2.0571941816637072E+01   -7.0613370268866271E-02    1.7932954069604545E+00
C    2.1315541323755095E+01    1.1565574447949925E+00    1.7799384205756628E+00
C    2.2742261651050097E+01    1.1317644945458676E+00    1.8664637021775119E+00
C    2.3418280112682993E+01    2.3863346517131410E+00    1.7572595538705333E+00
C    2.4852472759328549E+01    2.3917416308259249E+00    1.7955044102044990E+00
C    2.1296533508892402E+01    3.5944108608849596E+00    1.6407190234608047E+00
C    2.2734647129557576E+01    3.6254994159008249E+00    1.6871699554750001E+00
C    2.3442057530558365E+01    4.7990338496740099E+00    1.4938114190506748E+00
C    2.4882730828698367E+01    4.8139660912180604E+00    1.5878154887767413E+00
C    2.1323184244113190E+01    6.0463739176883253E+00    1.4267529322045909E+00
C    2.2761590204921376E+01    6.0411481315459206E+00    1.3872786948825542E+00
C    2.3479624195141710E+01    7.2680454843009965E+00    1.3580901717952092E+00
C    2.4888818949202683E+01    7.2941553910097277E+00    1.4813115686879728E+00
C    2.1350768763103748E+01    8.5237384303123473E+00    1.2829226876488231E+00
C    2.2758377374865105E+01    8.4863582345315258E+00    1.2891330770220935E+00
C    2.3446693669936128E+01    9.7439627465721657E+00    1.2650918236786364E+00
C    2.4897401620648743E+01    9.7215850310357048E+00    1.2993354933670318E+00
C    2.1313684515482901E+01    1.0977650000085148E+01    1.1340060575656670E+00
C    2.2741029597715613E+01    1.0962831465985264E+01    1.1520506924761365E+00
C    2.3401820352856543E+01   -9.6130770413962077E-02    1.7930920652124653E+00
C    2.4863305085697501E+01   -9.3521700345775713E-02    1.6225819195739881E+00
C    2.5624678070852486E+01   -1.1213358103407639E+01    1.3098264164366717E+00
C    2.7007991238369360E+01   -1.1230010947176677E+01    1.4825381599549725E+00
C    2.7785229700547674E+01   -9.9698998666124350E+00    1.5082620011155299E+00
C    2.9199907912515613E+01   -9.9819552895478108E+00    1.6330509218550859E+00
C    2.5623260779896430E+01   -8.7786172256590245E+00    1.3151497116920985E+00
C    2.7056557903531658E+01   -8.7551291991411500E+00    1.4594101168882210E+00
C    2.7747355538999695E+01   -7.4822634361294211E+00    1.5488755129824601E+00
C    2.9150960725137580E+01   -7.5113569626841832E+00    1.5097570218915004E+00
C    2.5602848545298684E+01   -6.2845663053430698E+00    1.4874727806950665E+00
C    2.7013258913269464E+01   -6.2921886552640123E+00    1.5147910961624484E+00
C    2.7676297841489745E+01   -4.9994853046394763E+00    1.5959383199910488E+00
C    2.9139201506756731E+01   -5.0380676409360312E+00    1.5039829316744671E+00
C    2.5583626619736325E+01   -3.7814308610601857E+00    1.6209556460888213E+00
C    2.6985373745591186E+01   -3.7852884059561633E+00    1.5836908847319064E+00
C    2.7717542998417130E+01   -2.5331113159456082E+00    1.5743543199099184E+00
C    2.9135779299086018E+01   -2.5711432208979299E+00    1.4991925623716227E+00
C    2.5590021869249163E+01   -1.3023988629339585E+00    1.6020544812466726E+00
C    2.7011978718295662E+01   -1.3199528677671228E+00    1.6365086085612777E+00
C    2.7756324235705460E+01   -1.2449222811258737E+01    1.4914771869336643E+00
C    2.9175479384958788E+01   -1.2425920363625632E+01    1.7160341977669229E+00
C    2.9913922510232741E+01   -1.1208147302333165E+01    1.7321993561048541E+00
C    3.1305923848049812E+01   -1.1173026558133339E+01    1.8676330946385338E+00
C    3.2044332930032446E+01   -9.9483765831484448E+00    1.7326330893850403E+00
C    3.3455709001956606E+01   -9.9642438114686414E+00    1.8116213625853046E+00
C    2.9894343774751491E+01   -8.7594664053681939E+00    1.5105197169096274E+00
C    3.1293642357879737E+01   -8.7619096992289602E+00    1.5704811232784821E+00
C    3.1990162617715416E+01   -7.5231203483219637E+00    1.4987542358861738E+00
C    3.3445833868946451E+01   -7.5201772902687578E+00    1.5297955266724343E+00
C    2.9848245972835109E+01   -6.2816126236970531E+00    1.4588548468874378E+00
C    3.1249643698143874E+01   -6.2778771895936387E+00    1.4747360332232318E+00
C    3.1965712331394229E+01   -5.0490642158989800E+00    1.4814308555759597E+00
C    3.3401708252784573E+01   -5.0565827383745647E+00    1.5599387078777722E+00
C    2.9858827600768809E+01   -3.8074979397014013E+00    1.4812553052684261E+00
C    3.1274464324338592E+01   -3.7996281988705527E+00    1.4874908614242364E+00
C    3.1985880340352811E+01   -2.5786755422541572E+00    1.5189536449692149E+00
C    3.3419416283962036E+01   -2.5754052189220156E+00    1.5550891375962717E+00
C    2.9873004777022160E+01   -1.3546035281885767E+00    1.5915511028858658E+00
C    3.1287233288116887E+01   -1.3489994163466161E+00    1.5471688487072204E+00
C    3.1997979519548544E+01   -1.2406350101405264E+01    1.9906312931558907E+00
C    3.3408149311789529E+01   -1.2415031568791051E+01    1.9471477610047534E+00
C    3.4162502105095911E+01   -1.1205667618011772E+01    1.8923913415816100E+00
C    3.5622524140849976E+01   -1.1270298516589301E+01    1.8686891966306931E+00
C    3.6297118169257502E+01   -1.0004627333416574E+01    1.9580382620042933E+00
C    3.7768174636440698E+01   -1.0014345308218772E+01    1.9260582037866301E+00
C    3.4198357532014867E+01   -8.7644526261120372E+00    1.7301746765978181E+00
C    3.5628738899393525E+01   -8.7472540486903814E+00    1.7809595825380680E+00
C    3.6317905446061829E+01   -7.5134180117327150E+00    1.7312572160304112E+00
C    3.7736821859762891E+01   -7.4862958493640983E+00    1.8741526152485415E+00
C    3.4132215588432473E+01   -6.2634267047968066E+00    1.5790709710244495E+00
C    3.5553378590678818E+01   -6.2491373622495372E+00    1.6936950387251377E+00
C    3.6263334162858882E+01   -5.0524899134112120E+00    1.8226652180989156E+00
C    3.7704800479158330E+01   -5.0397369523792328E+00    1.8990356830409025E+00
C    3.4096905592299549E+01   -3.8138555126868847E+00    1.6583600935645069E+00
C    3.5520569796641709E+01   -3.8141568897815383E+00    1.7790407774242547E+00
C    3.6235650800310225E+01   -2.5476088353448052E+00    1.6725047770143064E+00
C    3.7670029629365594E+01   -2.5517664195344252E+00    1.7408229380249751E+00
C    3.4080775102528783E+01   -1.3322064684284940E+00    1.6347050734430126E+00
C    3.5526632681847893E+01   -1.3159766753196225E+00    1.6342535984663586E+00
C    3.6312726877677406E+01   -1.2484522438498361E+01    1.9365152157836538E+00
C    3.7745242554841127E+01   -1.2423843675396649E+01    1.9107780064904281E+00
C    2.5563316956905886E+01    1.1575453161396292E+00    1.6557100029806875E+00
C    2.7026510942054220E+01    1.1544129905797282E+00    1.7123965556040508E+00
C    2.7746677711123954E+01    2.3322429536593692E+00    1.8333531529628584E+00
C    2.9148634220930035E+01    2.3248357289922907E+00    1.9623438634115311E+00
C    2.5580543436215784E+01    3.5956755147058437E+00    1.7538696884043847E+00
C    2.7022595803304263E+01    3.5675086987083411E+00    1.8568707346153286E+00
C    2.7705451761593732E+01    4.8064004483279126E+00    1.8614868671966647E+00
C    2.9147297651353643E+01    4.8306312814739805E+00    2.0675477406553902E+00
C    2.5585170235132328E+01    6.0475928960115031E+00    1.5880853817959497E+00
C    2.7014185676208982E+01    6.0585589870747070E+00    1.7628392189941218E+00
C    2.7711107225933841E+01    7.2745300307588039E+00    1.7083334533778856E+00
C    2.9133114588440240E+01    7.3363467939340037E+00    1.8872634118248168E+00
C    2.5626510332842482E+01    8.4983018999120503E+00    1.3601525131509666E+00
C    2.7038916281869934E+01    8.5216783177564945E+00    1.5010182933662797E+00
C    2.7750893720315933E+01    9.7308087346344934E+00    1.4522418785260747E+00
C    2.9185946624148560E+01    9.7850215958599787E+00    1.6823926454562321E+00
C    2.5611114641144855E+01    1.0970810065396144E+01    1.2608987983587816E+00
C    2.7049731983749272E+01    1.0978780843841724E+01    1.3704532184620859E+00
C    2.7730046213946551E+01   -6.8359426191426820E-02    1.7195821657669268E+00
C    2.9140042909629880E+01   -9.9628012475204725E-02    1.7219767033617039E+00
C    2.9840884712557830E+01    1.0877109196333523E+00    1.8681017745306499E+00
C    3.1233832316572446E+01    1.0882119793987128E+00    1.7332528322950407E+00
C    3.1961466338204858E+01    2.3611852069024999E+00    1.7355553172187799E+00
C    3.3363684470668389E+01    2.3302203207993979E+00    1.7625486288493923E+00
C    2.9842962276630466E+01    3.5589321439717705E+00    1.9704405560458347E+00
C    3.1251838939616622E+01    3.5719708677500188E+00    1.9225106580085687E+00
C    3.1986937398417137E+01    4.8110828467007556E+00    2.0029667952535140E+00
C    3.3431455563873634E+01    4.8081441763122719E+00    2.0143749617643874E+00
C    2.9822637854748880E+01    6.0946107882762117E+00    2.0706767027851498E+00
C    3.1263183648431994E+01    6.0785690806119463E+00    2.0242885655172684E+00
C    3.1970761070503134E+01    7.2889448556037921E+00    2.1145804255352965E+00
C    3.3397486008336735E+01    7.2784254574440848E+00    2.1381138787702194E+00
C    2.9879162616133538E+01    8.5524479549781827E+00    1.9325382781281877E+00
C    3.1314014694180003E+01    8.5041387342826642E+00    2.0553856760280680E+00
C    3.2016402245379119E+01    9.7475548328484614E+00    2.0153445859537329E+00
C    3.3443475699863242E+01    9.7630899042984591E+00    2.0182638347416937E+00
C    2.9889741760815717E+01    1.1016270298668999E+01    1.8196840387318427E+00
C    3.1303013725477825E+01    1.0973238559146164E+01    1.9500587655703048E+00
C    3.1964370913463007E+01   -1.2446954223793419E-01    1.6403765095816170E+00
C    3.3360622854942847E+01   -1.0385767097716284E-01    1.6219124539869743E+00
C    3.4067993982126062E+01    1.1321234117361707E+00    1.7031789869407084E+00
C    3.5496630016991233E+01    1.1448722942252874E+00    1.7734165136600757E+00
C    3.6241771141427037E+01    2.3461812512728786E+00    1.8737534293953724E+00
C    3.7679380207453093E+01    2.3811727428928928E+00    1.7943302653923410E+00
C    3.4111916153401658E+01    3.6046352403455684E+00    1.8891248640144327E+00
C    3.5567599142316531E+01    3.6091917192509317E+00    1.9869940854791508E+00
C    3.6269940573583391E+01    4.8167782732312467E+00    2.0386929104334484E+00
C    3.7689311254810505E+01    4.8584642003284744E+00    1.9479193315326331E+00
C    3.4137390075308581E+01    6.0400806584009699E+00    2.1465388839711976E+00
C    3.5523099925288527E+01    6.0505368652594704E+00    1.9896355549452451E+00
C    3.6194981808196502E+01    7.2764472586523956E+00    1.9212926224062281E+00
C    3.7652666173344038E+01    7.3074979548885421E+00    1.8514636226530068E+00
C    3.4124533178313527E+01    8.5289960187610099E+00    2.0385145354120091E+00
C    3.5558205317264097E+01    8.5254195704070259E+00    1.9499371120330367E+00
C    3.6232003693832084E+01    9.7671916055455235E+00    1.9527160916616610E+00
C    3.7670937498862486E+01    9.8125114125446284E+00    1.8020788579409048E+00
C    3.4147804190738114E+01    1.1033382333287241E+01    2.0447288602104501E+00
C    3.5592768069727207E+01    1.0998661214070982E+01    1.9621393730834800E+00
C    3.6242763893870695E+01   -7.4215536235063662E-02    1.6782648165257772E+00
C    3.7649094227702193E+01   -8.3542574790947580E-02    1.6920263775318527E+00
O    4.8346500165912715E+02    2.5341886501960542E+02    8.8355580441729380E+00
H    4.8388730410006980E+02    2.5408798185888600E+02    9.4971288304408041E+00
H    4.8257318710164287E+02    2.5375557762440482E+02    8.5596294908905932E+00
O    4.3826878275644447E+02    3.3831079106836455E+02    4.3670251845362049E+00
H    4.3812533501270121E+02    3.3737184255772610E+02    4.0828127894565807E+00
H    4.3926643130831980E+02    3.3846576844493035E+02    4.2614830547307720E+00
O    3.8415181246505836E+02    4.0095320496966735E+02    4.6390321451345935E+00
H    3.8406477692620177E+02    4.0002131488038276E+02    4.2861667141693269E+00
H    3.8344608881649140E+02    4.0115097290431601E+02    5.2830375834574461E+00
O    4.2283959685659408E+02    3.3378083230169057E+02    1.2644449923419019E+01
H    4.2231963578157081E+02    3.3298371081875121E+02    1.2961039298177866E+01
H    4.2361906511098931E+02    3.3343643482498084E+02    1.2024962081728351E+01
O    3.9576371785464562E+02    4.4703244083523742E+02    1.5718878304328681E+01
H    3.9483655800894309E+02    4.4705476622042517E+02    1.6181591409136757E+01
H    3.9592705965521100E+02    4.4798922701080448E+02    1.5679830695781446E+01
O    3.5167355727393959E+02    2.6992626724566253E+02    2.0223209656744711E+01
H    3.5188164832813283E+02    2.7088638331903064E+02    2.0071899381101101E+01
H    3.5073708765456462E+02    2.6979504472896940E+02    2.0380924544150453E+01
O    3.8313733251835720E+02    3.2712400311424557E+02    1.7787338730600283E+01
H    3.8326923933140154E+02    3.2724626826322481E+02    1.8765738336828893E+01
H    3.8331002560326601E+02    3.2618630819774842E+02    1.7579842032203501E+01
O    3.7119928683229529E+02    2.3634453825698600E+02    1.0069795939575837E+01
H    3.7106659724809452E+02    2.3602744625087368E+02    1.0968841456733054E+01
H    3.7179717717167932E+02    2.3582029103532929E+02    9.5142820417167790E+00
O    3.0469539701079907E+02    4.5756060477399410E+02    7.4420774772907894E+00
H    3.0419281427489722E+02    4.5673464947869024E+02    7.4603176846261192E+00
H    3.0429883341465057E+02    4.5808788338628750E+02    6.6688349932058841E+00
O    5.0949493430019163E+02    3.5977818296135371E+02    1.0404689452157690E+01
H    5.0885711273339257E+02    3.5908278279407625E+02    1.0351351715640561E+01
H    5.0902843265223993E+02    3.6067110579801607E+02    1.0228662000282821E+01
O    3.4838246676577580E+02    3.7430445089934102E+02    9.0230586908750308E+00
H    3.4880270364098641E+02    3.7437236204605910E+02    9.9186918873657817E+00
H    3.4775776245256924E+02    3.7509817143019251E+02    8.9079194050149333E+00
O    3.1032753626441729E+02    3.4626627336938537E+02    5.1581966869824116E+00
H    3.1127538469927828E+02    3.4617257089778286E+02    4.9845778213863339E+00
H    3.0992849124701826E+02    3.4538967674249221E+02    5.3658033492878516E+00
O    3.9259304229381866E+02    2.7496380575718354E+02    5.0533372487124826E+00
H    3.9322975495170243E+02    2.7574190111724732E+02    5.2186294211438007E+00
H    3.9253236666897931E+02    2.7463134752259907E+02    5.9856191449729277E+00
O    3.7321512418379791E+02    2.0777375266715669E+02    2.0310335558055574E+01
H    3.7310309275282714E+02    2.0800397297370412E+02    1.9381885188190829E+01
H    3.7409860351619636E+02    2.0727920082297931E+02    2.0359806926735491E+01
O    3.9772975495823783E+02    5.1818089466799893E+02    4.7373633519591589E+00
H    3.9797001594042513E+02    5.1909290767423659E+02    5.1208262888097993E+00
H    3.9696623093530690E+02    5.1837189101494926E+02    4.1012267124419637E+00
O    3.5740236065367321E+02    3.6536519152208552E+02    5.0719033410509171E+00
H    3.5827234422783630E+02    3.6553793652095180E+02    4.6634400710234614E+00
H    3.5722619416797721E+02    3.6439419674607274E+02    5.2012765363207247E+00
O    3.9778903363582486E+02    4.0071260896959558E+02    1.8807314762327593E+01
H    3.9868590339681276E+02    4.0119724546392888E+02    1.8745065472166814E+01
H    3.9807510020156349E+02    3.9974301659114826E+02    1.8750304672339873E+01
O    3.8296877050069997E+02    2.7695295755680388E+02    6.8431529145897096E+00
H    3.8230966411733840E+02    2.7705555736967187E+02    7.5857119544113676E+00
H    3.8239388474725348E+02    2.7650362894664249E+02    6.1861850919430772E+00
O    3.4359214945603964E+02    3.8698621404039199E+02    4.8625503963007555E+00
H    3.4400959863002169E+02    3.8606350551350693E+02    4.7130768039955289E+00