 # Version information for this restart file 
 # current date 2019-02-04 11:55:51.493
 # current working dir /scratch/snx3000/gtocci/gtocci/MEMBRANES/AIMD_US_IONS_GRA/potassium/aimd_us_pot/us_20
 # Program compiled at                             Thu Oct 11 21:49:41 CEST 2018
 # Program compiled on                                                  daint104
 # Program compiled for                                   CRAY_XC50-gfortran_gpu
 # Source code revision number                                     git:be74c20a5
 &GLOBAL
   PRINT_LEVEL  LOW
   PROJECT_NAME GRAS
   RUN_TYPE  MD
   WALLTIME 10100
 &END GLOBAL
 &MOTION
   &MD
     ENSEMBLE  NVT
     STEPS  100000
     TIMESTEP     9.9999999999999989E-01
     STEP_START_VAL  41114
     TIME_START_VAL     4.1113999999990170E+04
     ECONS_START_VAL    -8.3206209377690175E+03
     TEMPERATURE     3.0000000000000000E+02
     TEMP_KIND  T
     &BAROSTAT
       PRESSURE     1.0000000000000000E+00
       TIMECON     9.9999999999999986E+01
       VIRIAL  Z
     &END BAROSTAT
     &THERMOSTAT
       TYPE  NOSE
       REGION  GLOBAL
       &NOSE
         LENGTH  4
         TIMECON     9.9999999999999986E+01
         MTS  2
         &COORD
               1.4042158976999725E-01    3.1597857473468607E+00   -1.8354227710318366E+01    2.9314769496309172E+01
         &END COORD
         &VELOCITY
               3.3589644594610276E-06    1.2269323271615448E-04   -6.8635237032285072E-05    3.3332469206401430E-04
         &END VELOCITY
         &MASS
               7.0145132684705392E+07    1.6237299232570693E+04    1.6237299232570693E+04    1.6237299232570693E+04
         &END MASS
         &FORCE
              -1.5036520829284150E-09   -9.7689993736406733E-09   -4.3456384495764631E-08   -5.3799218087627114E-08
         &END FORCE
       &END NOSE
     &END THERMOSTAT
     &AVERAGES  T
       &RESTART_AVERAGES
         ITIMES_START  1
         AVECPU     4.9528827603050253E+01
         AVEHUGONIOT     0.0000000000000000E+00
         AVETEMP_BARO     0.0000000000000000E+00
         AVEPOT    -8.3232705830418709E+03
         AVEKIN     2.0506606661250819E+00
         AVETEMP     2.9979011565465902E+02
         AVEKIN_QM     0.0000000000000000E+00
         AVETEMP_QM     0.0000000000000000E+00
         AVEVOL     2.1331414786628069E+05
         AVECELL_A     4.8437460238125354E+01
         AVECELL_B     4.6608961231944683E+01
         AVECELL_C     9.4486306644279537E+01
         AVEALPHA     9.0000000000000057E+01
         AVEBETA     9.0000000000000057E+01
         AVEGAMMA     9.0000000000000057E+01
         AVE_ECONS    -2.6937043241097935E+00
         AVE_PRESS     0.0000000000000000E+00
         AVE_PXX     0.0000000000000000E+00
       &END RESTART_AVERAGES
     &END AVERAGES
     &PRINT
       &TEMP_KIND  SILENT
       &END TEMP_KIND
     &END PRINT
   &END MD
   &FREE_ENERGY
     &METADYN
       MIN_DISP    -1.0000000000000000E+00
       OLD_HILL_NUMBER  0
       OLD_HILL_STEP  0
       DO_HILLS  F
       STEP_START_VAL  41114
       NHILLS_START_VAL  0
       &METAVAR
         SCALE     1.0000000000000000E+00
         COLVAR  1
       &END METAVAR
       &PRINT
         &COLVAR  SILENT
           COMMON_ITERATION_LEVELS  3
           &EACH
             MD  1
           &END EACH
         &END COLVAR
       &END PRINT
     &END METADYN
   &END FREE_ENERGY
   &CONSTRAINT
     &COLLECTIVE
       COLVAR  1
       INTERMOLECULAR  T
       &RESTRAINT
         K     4.4625385281452931E-04
       &END RESTRAINT
     &END COLLECTIVE
     &COLVAR_RESTART
           1.8897261328856434E+01
     &END COLVAR_RESTART
   &END CONSTRAINT
   &PRINT
     &TRAJECTORY  SILENT
       &EACH
         MD  1
       &END EACH
     &END TRAJECTORY
     &VELOCITIES  SILENT
       &EACH
         MD  1
       &END EACH
     &END VELOCITIES
     &FORCES  SILENT
       UNIT eV*angstrom^-1
       &EACH
         MD  1
       &END EACH
     &END FORCES
     &RESTART  SILENT
       &EACH
         MD  1
       &END EACH
     &END RESTART
     &RESTART_HISTORY  SILENT
       &EACH
         MD  100
       &END EACH
     &END RESTART_HISTORY
   &END PRINT
 &END MOTION
 &FORCE_EVAL
   METHOD  QS
   &DFT
     BASIS_SET_FILE_NAME /users/gtocci/scratch_daint_3000/data_cp2k//BASIS_MOLOPT
     POTENTIAL_FILE_NAME /users/gtocci/scratch_daint_3000/data_cp2k//GTH_POTENTIALS
     WFN_RESTART_FILE_NAME ./GRAS-RESTART.wfn
     CHARGE  1
     &SCF
       MAX_SCF  10
       EPS_SCF     9.9999999999999995E-07
       SCF_GUESS  RESTART
       &OT  T
         MINIMIZER  DIIS
         PRECONDITIONER  FULL_KINETIC
       &END OT
       &OUTER_SCF  T
         EPS_SCF     9.9999999999999995E-07
         MAX_SCF  30
       &END OUTER_SCF
       &PRINT
         &RESTART  SILENT
           ADD_LAST  NUMERIC
           &EACH
             QS_SCF  50
           &END EACH
         &END RESTART
       &END PRINT
     &END SCF
     &QS
       MAP_CONSISTENT  T
       EXTRAPOLATION  ASPC
       EXTRAPOLATION_ORDER  4
     &END QS
     &MGRID
       NGRIDS  5
       CUTOFF     4.6000000000000000E+02
     &END MGRID
     &XC
       DENSITY_CUTOFF     1.0000000000000000E-10
       GRADIENT_CUTOFF     1.0000000000000000E-10
       TAU_CUTOFF     1.0000000000000000E-10
       &XC_GRID
         XC_DERIV  SPLINE2_SMOOTH
       &END XC_GRID
       &XC_FUNCTIONAL  NO_SHORTCUT
         &LIBXC  T
           FUNCTIONAL XC_GGA_X_OPTB88_VDW
         &END LIBXC
         &VWN  T
         &END VWN
       &END XC_FUNCTIONAL
       &VDW_POTENTIAL
         POTENTIAL_TYPE  NON_LOCAL
         &NON_LOCAL
           TYPE  DRSLL
           VERBOSE_OUTPUT  T
           KERNEL_FILE_NAME /users/gtocci/scratch_daint_3000/data_cp2k//vdW_kernel_table.dat
         &END NON_LOCAL
       &END VDW_POTENTIAL
     &END XC
     &REAL_TIME_PROPAGATION
       INITIAL_WFN  SCF_WFN
     &END REAL_TIME_PROPAGATION
     &PRINT
       &MULLIKEN  SILENT
         FILENAME =GRAS.mulliken
       &END MULLIKEN
     &END PRINT
   &END DFT
   &SUBSYS
     &CELL
       A     2.5632000000000001E+01    0.0000000000000000E+00    0.0000000000000000E+00
       B     0.0000000000000000E+00    2.4664400000000022E+01    0.0000000000000000E+00
       C     0.0000000000000000E+00    0.0000000000000000E+00    5.0000000000000028E+01
       MULTIPLE_UNIT_CELL  1 1 1
     &END CELL
     &COORD
C   -1.4266962786809454E+01    6.7910454418474453E+00    1.5050028100697024E+00
C   -1.2861620490490866E+01    6.8141238869130447E+00    1.4839033497164544E+00
C   -1.2141639096113678E+01    8.0142539129947927E+00    1.3594191710045611E+00
C   -1.0715595914575056E+01    8.0391169439652490E+00    1.2649096734336935E+00
C   -1.4286187019117374E+01    9.2352693089420796E+00    1.5323047812290091E+00
C   -1.2837787884804284E+01    9.2508311902136651E+00    1.3927157652967983E+00
C   -1.2159182033742631E+01    1.0482308639005023E+01    1.3835276914287318E+00
C   -1.0751702244842022E+01    1.0453161894566851E+01    1.3007597190182509E+00
C   -1.4277971715833358E+01    1.1720227831679251E+01    1.5173929194347835E+00
C   -1.2863797865813957E+01    1.1695192105660794E+01    1.4866806390772722E+00
C   -1.2143813833306911E+01    1.2944558266251711E+01    1.4728774325980856E+00
C   -1.0735312244746726E+01    1.2927447164801007E+01    1.4431144548874515E+00
C   -1.4269395724387877E+01    1.4167212472232453E+01    1.5759888402794642E+00
C   -1.2833261651384761E+01    1.4188869315856769E+01    1.5024333571596060E+00
C   -1.2121087497507265E+01    1.5421011311554745E+01    1.4476866634121472E+00
C   -1.0671724090111601E+01    1.5454519898431736E+01    1.4009982863445429E+00
C   -1.4248660918371394E+01    1.6649718485634008E+01    1.4083188245934375E+00
C   -1.2846355289956628E+01    1.6671382839900858E+01    1.4667675267265394E+00
C   -1.2166824948451202E+01    5.5881814629938296E+00    1.4407882777812815E+00
C   -1.0722328172087172E+01    5.5552183744554506E+00    1.3883886437983106E+00
C   -1.0044947937359243E+01    6.7860710537403479E+00    1.3610972562762171E+00
C   -8.5986280854972286E+00    6.7760504270675179E+00    1.3673590566368470E+00
C   -7.9126613523294154E+00    7.9929916246812693E+00    1.3479420589318007E+00
C   -6.4651259203543088E+00    7.9937599225494784E+00    1.2334438874477318E+00
C   -9.9978742200085868E+00    9.2344131103476563E+00    1.2512876797356949E+00
C   -8.5805139172139633E+00    9.2480119617175411E+00    1.2749611433799533E+00
C   -7.8416552719256361E+00    1.0470903117899747E+01    1.2514748758840830E+00
C   -6.4347360640237845E+00    1.0476486643864577E+01    1.2374324327022863E+00
C   -1.0009668367410557E+01    1.1675178112404149E+01    1.3475865587716671E+00
C   -8.5801341054612728E+00    1.1659781676527814E+01    1.2882720931097698E+00
C   -7.8709705180931238E+00    1.2914514472599162E+01    1.3575519085988075E+00
C   -6.4990672877303055E+00    1.2933007085198268E+01    1.2616200880205357E+00
C   -1.0008441179483166E+01    1.4222646865206443E+01    1.3413400311760215E+00
C   -8.5919638061573327E+00    1.4164090638107503E+01    1.3454915082748633E+00
C   -7.8575480488031726E+00    1.5416527612809611E+01    1.2588018681717446E+00
C   -6.4264520390000683E+00    1.5408765536608056E+01    1.2129438348629946E+00
C   -9.9780695838747988E+00    1.6724732843918279E+01    1.2763043562076548E+00
C   -8.5560056314520647E+00    1.6661964140740228E+01    1.2370042765532179E+00
C   -7.8895473110585010E+00    5.5276340842416518E+00    1.4146110301025552E+00
C   -6.4445785047386082E+00    5.5031290034790645E+00    1.3560526155771939E+00
C   -5.7303949378218526E+00    6.7423594433032248E+00    1.2817538022842749E+00
C   -4.3014729858590872E+00    6.7659102786762171E+00    1.2274766927541467E+00
C   -3.6428068444390465E+00    8.0322120285166179E+00    1.2162007927738163E+00
C   -2.1966153662981927E+00    8.0103942017642993E+00    1.0603654438450771E+00
C   -5.7165763782151258E+00    9.2231182184360598E+00    1.1326231833630056E+00
C   -4.3005754092134163E+00    9.2891099318018551E+00    1.2425170271655459E+00
C   -3.6143554783687453E+00    1.0515836830863593E+01    1.3388478236776633E+00
C   -2.1851649686983605E+00    1.0515804728672659E+01    1.2243473280730774E+00
C   -5.7567431853523736E+00    1.1718397637495928E+01    1.2557736386288401E+00
C   -4.3298574863593648E+00    1.1735876093276502E+01    1.2829463130212144E+00
C   -3.6008393238841889E+00    1.2977406286099049E+01    1.2071948776223729E+00
C   -2.1953197815137573E+00    1.2974867856534154E+01    1.1300524656242430E+00
C   -5.7513565280558119E+00    1.4169930349300447E+01    1.2571236854592998E+00
C   -4.3492465856974896E+00    1.4202697471816419E+01    1.1348818167511421E+00
C   -3.6240426290690513E+00    1.5436513391374243E+01    1.2313586938538033E+00
C   -2.1778282164805791E+00    1.5407100929288685E+01    1.2525171338011309E+00
C   -5.7314827363742689E+00    1.6653954699434042E+01    1.2350969656836235E+00
C   -4.3095926924556460E+00    1.6682911481844133E+01    1.2094920080370355E+00
C   -3.5775094641477287E+00    5.5350580656701931E+00    1.1461924661511078E+00
C   -2.1429932126827334E+00    5.5462580922617022E+00    1.1387876063523228E+00
C   -1.4305407116369526E+01    1.9125034138076153E+01    1.3577736875144610E+00
C   -1.2857978942258516E+01    1.9126354047479307E+01    1.4759293659167450E+00
C   -1.2163480966075452E+01    2.0346787119821911E+01    1.5609655398835076E+00
C   -1.0712731875778513E+01    2.0367383062604397E+01    1.5820397237004731E+00
C   -1.4281953512505112E+01    2.1554291930027393E+01    1.4472792626666544E+00
C   -1.2868858492776395E+01    2.1559124773965287E+01    1.5504221943267182E+00
C   -1.2202438276739956E+01    2.2821157256927567E+01    1.5041279248888322E+00
C   -1.0760450952123954E+01    2.2804675622868956E+01    1.4435584008022317E+00
C   -1.4267915220719761E+01    2.4077859242449325E+01    1.4190700312970510E+00
C   -1.2867815636155019E+01    2.4059663211046409E+01    1.5157336240071875E+00
C   -1.2126832227072965E+01    2.5304462607901392E+01    1.4854312933290623E+00
C   -1.0719658798856555E+01    2.5260855855339756E+01    1.4636400348772318E+00
C   -1.4270043128653903E+01    2.6548033190142824E+01    1.4303815992413116E+00
C   -1.2854020758873718E+01    2.6534940829825516E+01    1.5304358129443822E+00
C   -1.2138827541182259E+01    2.7764664925316907E+01    1.4157697343853544E+00
C   -1.0722679439113969E+01    2.7716088620733718E+01    1.3688505989981103E+00
C   -1.4302556706385529E+01    2.9005448774101072E+01    1.3178852430784975E+00
C   -1.2836629386111575E+01    2.8989835233210492E+01    1.3792043905916123E+00
C   -1.2115195713542498E+01    1.7916936318121326E+01    1.4570633095023238E+00
C   -1.0707480294280700E+01    1.7955083445267885E+01    1.4321400379929237E+00
C   -9.9657223740621568E+00    1.9160946255902516E+01    1.4632057775222069E+00
C   -8.5464522309020285E+00    1.9125219371044082E+01    1.3386865231783815E+00
C   -7.9150531995631548E+00    2.0366795686321726E+01    1.2372260042287853E+00
C   -6.5048764443610638E+00    2.0379740013792528E+01    1.1437565486572252E+00
C   -1.0064020737679510E+01    2.1605816433284300E+01    1.4305084130086423E+00
C   -8.6041579665602566E+00    2.1619399913794723E+01    1.2900461445430416E+00
C   -7.8479931629557216E+00    2.2823739498227411E+01    1.2112932700666621E+00
C   -6.4223589630370777E+00    2.2839154904604634E+01    1.2193366486649935E+00
C   -1.0009830053996799E+01    2.4040559606806656E+01    1.3603479938916572E+00
C   -8.5919300086238124E+00    2.4040270290261795E+01    1.2763791055147982E+00
C   -7.8842183061655913E+00    2.5257037947942706E+01    1.3371791711157468E+00
C   -6.4480614219493315E+00    2.5284344733001060E+01    1.3170666116767886E+00
C   -9.9892337819882542E+00    2.6492926517495551E+01    1.4107097286029617E+00
C   -8.5722888943890094E+00    2.6504358187858180E+01    1.4415702540835988E+00
C   -7.8943247153104723E+00    2.7746785900659017E+01    1.4266518718113597E+00
C   -6.4888272153151867E+00    2.7722285245077874E+01    1.3883064464108368E+00
C   -1.0027596828247034E+01    2.8961175661168973E+01    1.3556881426142358E+00
C   -8.6080055970905374E+00    2.8974455372037312E+01    1.4126072875493167E+00
C   -7.8264078785435478E+00    1.7864286605698009E+01    1.2105537160488373E+00
C   -6.4365859681240902E+00    1.7888808273000613E+01    1.2670055455037752E+00
C   -5.7523524061499343E+00    1.9145246634733343E+01    1.2575180129493480E+00
C   -4.3354251827792512E+00    1.9161845707756424E+01    1.2647851139187829E+00
C   -3.6064656856990402E+00    2.0394931953808371E+01    1.2066294452873731E+00
C   -2.1885211782619836E+00    2.0358736390835794E+01    1.2603100677926329E+00
C   -5.7161085251885293E+00    2.1590724188763552E+01    1.1462482156188194E+00
C   -4.3219563903677676E+00    2.1622445744743548E+01    1.1487171227298416E+00
C   -3.6047785353353046E+00    2.2850859391205699E+01    1.2901447036082907E+00
C   -2.1662299193703878E+00    2.2846978674488462E+01    1.2988923716398526E+00
C   -5.7188323288534715E+00    2.4053671142874141E+01    1.2673744514708374E+00
C   -4.2882392167617036E+00    2.4074281598399882E+01    1.3557060687164983E+00
C   -3.5885326241965037E+00    2.5274832997508028E+01    1.3314714663074705E+00
C   -2.1569195927030025E+00    2.5310622280123461E+01    1.3098937677835747E+00
C   -5.7362333726716859E+00    2.6514054046618650E+01    1.3452249376936003E+00
C   -4.2928014397847267E+00    2.6501893219903021E+01    1.2957698203292880E+00
C   -3.5519972413115832E+00    2.7743298441456201E+01    1.1660842128018609E+00
C   -2.1329960231284733E+00    2.7726578273454333E+01    1.1171223716881040E+00
C   -5.7197915614698580E+00    2.8939600498624490E+01    1.3010582256067789E+00
C   -4.2964608653232030E+00    2.8966055870591415E+01    1.1391507154834288E+00
C   -3.6119174834204304E+00    1.7910521898822658E+01    1.2884826497210591E+00
C   -2.2067024243185984E+00    1.7889452498824060E+01    1.2383740675687058E+00
C   -1.4552783350639624E+00    6.7984053164230005E+00    1.0367107078336453E+00
C   -5.1302838516910961E-04    6.8130901382529752E+00    1.0528935369800718E+00
C    6.5609632572646015E-01    8.0698165572623424E+00    1.1300273959089868E+00
C    2.0766726753298999E+00    8.0557810710335911E+00    1.1742555917637205E+00
C   -1.5090344915064149E+00    9.2958614666534825E+00    1.1629359034612896E+00
C   -6.8038540701159944E-02    9.2659573000151969E+00    1.1206764453946809E+00
C    6.6050538385730984E-01    1.0524624130303128E+01    1.1823460383328555E+00
C    2.0863587415305851E+00    1.0501094524921516E+01    1.2190855679025914E+00
C   -1.4725109811752324E+00    1.1739047825454163E+01    1.1420717639935019E+00
C   -4.6199780247516010E-02    1.1753035817218521E+01    1.2046386230065240E+00
C    6.5941986957743171E-01    1.2964550073031969E+01    1.2579911860053763E+00
C    2.1201545373488928E+00    1.2933620933611033E+01    1.4301280344608238E+00
C   -1.4774615949251417E+00    1.4213930808367605E+01    1.1355709384439463E+00
C   -5.7027367956967341E-02    1.4201840799190636E+01    1.2472087870765551E+00
C    6.9072636523358499E-01    1.5408115180045645E+01    1.2158040031260644E+00
C    2.1068136484489384E+00    1.5433115661126763E+01    1.4218230202942950E+00
C   -1.4967273691669993E+00    1.6657296680611942E+01    1.2350104720637678E+00
C   -2.7417716341982604E-02    1.6649297537428076E+01    1.1755379639285337E+00
C    6.9614753995521761E-01    5.5618796995973883E+00    1.0415321138983888E+00
C    2.1051392607327064E+00    5.5707530868251638E+00    1.1473765604576380E+00
C    2.8135933423068504E+00    6.8257538042019323E+00    1.1818367262149576E+00
C    4.2221408360982036E+00    6.8105537793045396E+00    1.1660211871324142E+00
C    4.9414386254617266E+00    8.0283600312424213E+00    1.2963719295020688E+00
C    6.3690879302324541E+00    8.0540630844700658E+00    1.2884785744778351E+00
C    2.8104888602080740E+00    9.2681764625445062E+00    1.2151085890016768E+00
C    4.2275776073803630E+00    9.2788393071632793E+00    1.3034523881544893E+00
C    4.9790760990211549E+00    1.0500014024423908E+01    1.3930474502045753E+00
C    6.3953612780863436E+00    1.0521293656402657E+01    1.4799100122324549E+00
C    2.8008810587210378E+00    1.1740530608297503E+01    1.3468327979731949E+00
C    4.2435113281051997E+00    1.1696801607849521E+01    1.4819901036432641E+00
C    4.9140182196862821E+00    1.2928324652634611E+01    1.6549413976400875E+00
C    6.3489385026630254E+00    1.2926637756027933E+01    1.7158350705056165E+00
C    2.8036200560382150E+00    1.4175866479608683E+01    1.5260239954069736E+00
C    4.2426164515634257E+00    1.4153193389328750E+01    1.5661319396022753E+00
C    4.9629341799030238E+00    1.5362634969350909E+01    1.5937669246121089E+00
C    6.4176274152165833E+00    1.5391144890685570E+01    1.7239738713044952E+00
C    2.8184254881145332E+00    1.6639851276940455E+01    1.3958551528998115E+00
C    4.2389664605808370E+00    1.6634284719647813E+01    1.5435553348357736E+00
C    4.9348065616685730E+00    5.5986042035695176E+00    1.2200109764119542E+00
C    6.3411868077835170E+00    5.5951197060774041E+00    1.2859519375327315E+00
C    7.0824099509816403E+00    6.8091710294415861E+00    1.3389278616691160E+00
C    8.5212597363913218E+00    6.7752358157891974E+00    1.4195324161940515E+00
C    9.1965085029337246E+00    8.0310308951631715E+00    1.4189004695163232E+00
C    1.0638093858839774E+01    8.0184786865010800E+00    1.5268678343469511E+00
C    7.1187949433877966E+00    9.2652666131706507E+00    1.3499428198170140E+00
C    8.5211672213573095E+00    9.2770105276826769E+00    1.3893686634911151E+00
C    9.2254390217853004E+00    1.0510468963371178E+01    1.4610003943105003E+00
C    1.0621208713881680E+01    1.0479678506004250E+01    1.5180508045828180E+00
C    7.0858695928631601E+00    1.1777512539658650E+01    1.5914673569486766E+00
C    8.4950667320701161E+00    1.1753194568251745E+01    1.4892017533612341E+00
C    9.2181081520040440E+00    1.2965201393679255E+01    1.7063684478564800E+00
C    1.0651980445665174E+01    1.2968974963501925E+01    1.5821515156010155E+00
C    7.0961246113933338E+00    1.4161894416892865E+01    1.8105448030423974E+00
C    8.5351605515446263E+00    1.4191584545724686E+01    1.7336615340553725E+00
C    9.2482199160220020E+00    1.5406775763246394E+01    1.6251669507505488E+00
C    1.0655816699088069E+01    1.5419710424389157E+01    1.5015167912422429E+00
C    7.1224657961117011E+00    1.6643791050537939E+01    1.5750453859950901E+00
C    8.5374469615572295E+00    1.6648151521975777E+01    1.5489624459927755E+00
C    9.2460783879804200E+00    5.5969721566321811E+00    1.3462413059914864E+00
C    1.0680048376579824E+01    5.6039300932519520E+00    1.3964658352919814E+00
C   -1.5024244587158762E+00    1.9099584375822221E+01    1.2324031727346410E+00
C   -7.2343865630257354E-02    1.9070903372636305E+01    1.2177521223672709E+00
C    6.7507963891874501E-01    2.0324560653792282E+01    1.2320231010705389E+00
C    2.1229987946218860E+00    2.0301117127189976E+01    1.2317785747364596E+00
C   -1.4531592592807916E+00    2.1590181922816033E+01    1.3059074834325417E+00
C   -1.0537841065117232E-02    2.1594722356698878E+01    1.2208306708865342E+00
C    7.0855315352830084E-01    2.2801682795186395E+01    1.0895220484833466E+00
C    2.1463392215360169E+00    2.2799385809514753E+01    1.0696974538136841E+00
C   -1.4363033773752889E+00    2.4065816851791745E+01    1.2802534993424548E+00
C   -1.0966507726091822E-02    2.4074127843333880E+01    1.0137481275874680E+00
C    6.8159686064051739E-01    2.5290649912611620E+01    1.0392760246370938E+00
C    2.1421283365354515E+00    2.5293134738633697E+01    9.8735357090840592E-01
C   -1.4633933285610723E+00    2.6492912426644430E+01    1.1933029489802316E+00
C   -3.8568271716040776E-02    2.6526993148688433E+01    1.0907410406875311E+00
C    6.8636941812279562E-01    2.7765070816776554E+01    1.1705677334350755E+00
C    2.1008477109892882E+00    2.7752132823309733E+01    1.1660782851776086E+00
C   -1.4468795784709365E+00    2.8978126331375503E+01    1.1322413991798523E+00
C   -2.3962440533209829E-02    2.9001391393394716E+01    1.1365982554721303E+00
C    6.6620125911949002E-01    1.7870576538473195E+01    1.1738829315046149E+00
C    2.1084435195019426E+00    1.7885486346284377E+01    1.1766713872445218E+00
C    2.8425006147475487E+00    1.9102079085038966E+01    1.2830699797565457E+00
C    4.2471017734768592E+00    1.9127933910301071E+01    1.3705314761168055E+00
C    4.9607896463489700E+00    2.0342353132315864E+01    1.3336209464882567E+00
C    6.3780923206041376E+00    2.0366284810568366E+01    1.3378455765287010E+00
C    2.8377927814696249E+00    2.1562418066863135E+01    1.2133695157478910E+00
C    4.2606808950976642E+00    2.1613317481925179E+01    1.2708613266944639E+00
C    4.9414428106172377E+00    2.2868680457418293E+01    1.1871582163349923E+00
C    6.3846394710246832E+00    2.2825741688903271E+01    1.2384095075984745E+00
C    2.8484251261172671E+00    2.4065710289182785E+01    1.0032347891982403E+00
C    4.2760476232515261E+00    2.4100197807564644E+01    1.0129736602270676E+00
C    5.0229320840419440E+00    2.5291014261722015E+01    1.0396282010843227E+00
C    6.4639537735602390E+00    2.5303394477980117E+01    1.0293711564238910E+00
C    2.8521982303674913E+00    2.6522814683993538E+01    1.0828374233963391E+00
C    4.3036443464143641E+00    2.6533527885386750E+01    1.1009502949431784E+00
C    4.9916500179448065E+00    2.7802868363190044E+01    1.1960649892261555E+00
C    6.4040845084505600E+00    2.7791792601545378E+01    1.1657389493834862E+00
C    2.8210002017954858E+00    2.8977226218501922E+01    1.1772076915720293E+00
C    4.2701974905964102E+00    2.8999520636632273E+01    1.1833312195502017E+00
C    4.9664878888319430E+00    1.7868399866937175E+01    1.4880675736820617E+00
C    6.3850185269022868E+00    1.7865493014988889E+01    1.5479770873286167E+00
C    7.0657948809089488E+00    1.9088564612614000E+01    1.4590091341967160E+00
C    8.4814698081202113E+00    1.9099546777402647E+01    1.3908232053329639E+00
C    9.2120350268574214E+00    2.0317870457116754E+01    1.3084144558027104E+00
C    1.0629192830491808E+01    2.0352994441258559E+01    1.2949735582458006E+00
C    7.1085761310249422E+00    2.1582298839658069E+01    1.2686379533735819E+00
C    8.5323096773115790E+00    2.1574781918164888E+01    1.2384083847714666E+00
C    9.2215236462111552E+00    2.2806183817316715E+01    1.2795985395156688E+00
C    1.0666082032769364E+01    2.2814459692833498E+01    1.4458315593881230E+00
C    7.1409439582961278E+00    2.4049912015858368E+01    1.1147632718256686E+00
C    8.5897010531855749E+00    2.4083884044726013E+01    1.1585675092043652E+00
C    9.2685763240974932E+00    2.5308516921899749E+01    1.2270289981861477E+00
C    1.0680511900342713E+01    2.5331152934828800E+01    1.3221314500523378E+00
C    7.1285190607083528E+00    2.6552140810270750E+01    1.1139909217025321E+00
C    8.5191290060330260E+00    2.6569839709850690E+01    1.1689818308569462E+00
C    9.2179694673481869E+00    2.7798226121707795E+01    1.2520636766471340E+00
C    1.0637634582771717E+01    2.7769401122046453E+01    1.3553066920856245E+00
C    7.0842557465558063E+00    2.9055061444075470E+01    1.2528943827716816E+00
C    8.5273774837167213E+00    2.9033521249418150E+01    1.2809841263408728E+00
C    9.2166216055561740E+00    1.7859260926994679E+01    1.4008868614304602E+00
C    1.0621843521380768E+01    1.7869738327971223E+01    1.3063349781207541E+00
O    3.4478391530495134E+02    3.8520772250147974E+02    1.1467476521907232E+01
H    3.4459418843197915E+02    3.8460741502063939E+02    1.0680284407279052E+01
H    3.4542215322048969E+02    3.8579112769024607E+02    1.1065036016463933E+01
O    2.8545852366559376E+02    3.1188768745700349E+02    1.9916508370297791E+01
H    2.8509119325513745E+02    3.1142489479212679E+02    1.9141045253609313E+01
H    2.8505189117351654E+02    3.1282233177569634E+02    1.9902048942911531E+01
O    3.0495781624168154E+02    4.0867575503098749E+02    1.1053597262351829E+01
H    3.0485064275899981E+02    4.0842842060642027E+02    1.0099588376877175E+01
H    3.0463869273434045E+02    4.0795418198432327E+02    1.1655029294327234E+01
O    3.8399059566132127E+02    2.4398897304066705E+02    6.1330906863206858E+00
H    3.8394658866654555E+02    2.4479476410759477E+02    5.5818795236809589E+00
H    3.8463190870622901E+02    2.4427586865351662E+02    6.8028124370383907E+00
O    2.9825827285436822E+02    3.7182240328805784E+02    1.1266087720912719E+01
H    2.9900280371778712E+02    3.7211781973951514E+02    1.1872424178170688E+01
H    2.9856897631987084E+02    3.7198405728504395E+02    1.0328935799795653E+01
O    2.4695122533487404E+02    3.0444540769177593E+02    7.1495423704229655E+00
H    2.4731180250903390E+02    3.0531976339205488E+02    7.4073071576912577E+00
H    2.4784085877857646E+02    3.0392447112424378E+02    7.2114152870398005E+00
O    3.0690007136789001E+02    3.1936949622325977E+02    2.1118785215228812E+01
H    3.0672639415810232E+02    3.1988341316414966E+02    2.0270518294423347E+01
H    3.0701006559186567E+02    3.2009275683030387E+02    2.1762598682838142E+01
O    2.5273424694632718E+02    2.5641642277910205E+02    1.6096465874013504E+01
H    2.5240722546660299E+02    2.5697312266609413E+02    1.6862530041152592E+01
H    2.5203716444606280E+02    2.5648328094306635E+02    1.5387941566423601E+01
O    1.6438471785974986E+02    3.6002661216739773E+02    1.7863039755114229E+01
H    1.6474673482076312E+02    3.5964335453385445E+02    1.7043572367609027E+01
H    1.6510162192572977E+02    3.6076662787012009E+02    1.7915383229437634E+01
O    3.7050008679571818E+02    4.0840852000989497E+02    4.9044825646392507E+00
H    3.6983365151208403E+02    4.0896464345823705E+02    5.3563933827131658E+00
H    3.7105044458969093E+02    4.0909395463294999E+02    4.4099615522516658E+00
O    2.6825421716523823E+02    3.6951796612230345E+02    6.9909393437166694E+00
H    2.6785082176463681E+02    3.6872046639356546E+02    7.3760732087890766E+00
H    2.6914289790059257E+02    3.6969002169684006E+02    7.3985179779128973E+00
O    2.2563553300810776E+02    3.8774176172480929E+02    1.4783099981446286E+01
H    2.2542019431898950E+02    3.8726055073363830E+02    1.5600616919037284E+01
H    2.2489918556595219E+02    3.8768864397955241E+02    1.4113454877435878E+01
O    2.0375005742004984E+02    3.1352424515172976E+02    6.0470372472563376E+00
H    2.0455531427041691E+02    3.1296388383776190E+02    5.7760336669028387E+00
H    2.0363392202413587E+02    3.1433802615833127E+02    5.4489830916926829E+00
O    3.0316877047202377E+02    1.9463122033404039E+02    1.8478396888174185E+01
H    3.0308208270650482E+02    1.9394252064684380E+02    1.7738826193220451E+01
H    3.0219124915848738E+02    1.9480509597593570E+02    1.8690867332810427E+01
O    2.9375458905445964E+02    4.3535911273899023E+02    1.4521678373943599E+01
H    2.9327820027133379E+02    4.3502767206946208E+02    1.3730219109711998E+01
H    2.9328777841143238E+02    4.3615441613786669E+02    1.4819554616292347E+01
O    3.1199830760871134E+02    3.9868342209719208E+02    1.1377513226825615E+01
H    3.1125900974058879E+02    3.9919526544759128E+02    1.0963614754513522E+01
H    3.1267360904677508E+02    3.9935959409644846E+02    1.1679944235558393E+01
O    2.5776429553442034E+02    4.0519151142711053E+02    7.3237126769931544E+00
H    2.5877246556757348E+02    4.0502533146772208E+02    7.4661913390993435E+00
H    2.5734404878853087E+02    4.0425736689723561E+02    7.4484098805432115E+00
O    3.1899211030599440E+02    2.8467287576763283E+02    8.9961442878719158E+00
H    3.1918207135486017E+02    2.8408410612495157E+02    9.7841960383859146E+00
H    3.1985691354820807E+02    2.8512795014211270E+02    8.6799585873179694E+00
O    3.4200240546547042E+02    3.7345836115069051E+02    1.9354003208051871E+01
H    3.4288283213705068E+02    3.7343774102631141E+02    1.9843086168998088E+01