 # Version information for this restart file 
 # current date 2020-04-18 21:22:04.464
 # current working dir /scratch/snx3000/gtocci/gtocci/MEMBRANES/AIMD_US_IONS_GRA/us_aimd_new/us_26
 # Program compiled at                              Fri Nov 22 15:19:42 CET 2019
 # Program compiled on                                                  daint102
 # Program compiled for                                   CRAY_XC50-gfortran_gpu
 # Source code revision number                                       git:a698b45
 &GLOBAL
   PRINT_LEVEL  LOW
   PROJECT_NAME GRAS
   RUN_TYPE  MD
   WALLTIME 86400
 &END GLOBAL
 &MOTION
   &MD
     ENSEMBLE  NVT
     STEPS  2000
     TIMESTEP     9.9999999999999989E-01
     STEP_START_VAL  78931
     TIME_START_VAL     7.8930999999931999E+04
     ECONS_START_VAL    -8.3039348835388682E+03
     TEMPERATURE     3.0000000000000000E+02
     TEMP_KIND  T
     &BAROSTAT
       PRESSURE     1.0000000000000000E+00
       TIMECON     9.9999999999999986E+01
       VIRIAL  Z
     &END BAROSTAT
     &THERMOSTAT
       TYPE  NOSE
       REGION  GLOBAL
       &NOSE
         LENGTH  4
         TIMECON     9.9999999999999986E+01
         MTS  2
         &COORD
               1.1869597072021722E-01    5.8857058949255880E+01   -4.4809891329499623E+00   -2.7440441453211804E+01
         &END COORD
         &VELOCITY
              -8.2054822109655628E-07    2.3189706779360093E-04   -4.7032167667740460E-06    1.9880941323333987E-04
         &END VELOCITY
         &MASS
               7.0145132684705392E+07    1.6237299232570693E+04    1.6237299232570693E+04    1.6237299232570693E+04
         &END MASS
         &FORCE
               1.8520249696691251E-09   -5.5601360514919863E-08   -4.7337637988351266E-09   -5.8487893602149803E-08
         &END FORCE
       &END NOSE
     &END THERMOSTAT
     &AVERAGES  T
       &RESTART_AVERAGES
         ITIMES_START  1
         AVECPU     3.1319979634620093E+01
         AVEHUGONIOT     0.0000000000000000E+00
         AVETEMP_BARO     0.0000000000000000E+00
         AVEPOT    -8.3065718247500772E+03
         AVEKIN     2.0522223472707726E+00
         AVETEMP     3.0001842089257929E+02
         AVEKIN_QM     0.0000000000000000E+00
         AVETEMP_QM     0.0000000000000000E+00
         AVEVOL     2.1331414786626375E+05
         AVECELL_A     4.8437460238121709E+01
         AVECELL_B     4.6608961231948342E+01
         AVECELL_C     9.4486306644281314E+01
         AVEALPHA     9.0000000000000028E+01
         AVEBETA     9.0000000000000028E+01
         AVEGAMMA     9.0000000000000028E+01
         AVE_ECONS     1.0488301788506140E+00
         AVE_PRESS     0.0000000000000000E+00
         AVE_PXX     0.0000000000000000E+00
       &END RESTART_AVERAGES
     &END AVERAGES
     &PRINT
       &TEMP_KIND  SILENT
       &END TEMP_KIND
     &END PRINT
   &END MD
   &FREE_ENERGY
     &METADYN
       MIN_DISP    -1.0000000000000000E+00
       OLD_HILL_NUMBER  0
       OLD_HILL_STEP  0
       DO_HILLS  F
       STEP_START_VAL  78931
       NHILLS_START_VAL  0
       &METAVAR
         SCALE     1.0000000000000000E+00
         COLVAR  1
       &END METAVAR
       &PRINT
         &COLVAR  SILENT
           COMMON_ITERATION_LEVELS  3
           &EACH
             MD  1
           &END EACH
         &END COLVAR
       &END PRINT
     &END METADYN
   &END FREE_ENERGY
   &CONSTRAINT
     &COLLECTIVE
       COLVAR  1
       INTERMOLECULAR  T
       &RESTRAINT
         K     4.4625385281452931E-04
       &END RESTRAINT
     &END COLLECTIVE
     &COLVAR_RESTART
           2.4566439727513362E+01
     &END COLVAR_RESTART
   &END CONSTRAINT
   &PRINT
     &TRAJECTORY  SILENT
       &EACH
         MD  1
       &END EACH
     &END TRAJECTORY
     &VELOCITIES  SILENT
       &EACH
         MD  1
       &END EACH
     &END VELOCITIES
     &FORCES  SILENT
       UNIT eV*angstrom^-1
       &EACH
         MD  1
       &END EACH
     &END FORCES
     &RESTART  SILENT
       &EACH
         MD  1
       &END EACH
     &END RESTART
     &RESTART_HISTORY  SILENT
       &EACH
         MD  100
       &END EACH
     &END RESTART_HISTORY
   &END PRINT
 &END MOTION
 &FORCE_EVAL
   METHOD  QS
   &DFT
     BASIS_SET_FILE_NAME /users/gtocci/scratch_daint_3000/data_cp2k//BASIS_MOLOPT
     POTENTIAL_FILE_NAME /users/gtocci/scratch_daint_3000/data_cp2k//GTH_POTENTIALS
     WFN_RESTART_FILE_NAME ./GRAS-RESTART.wfn
     CHARGE  -1
     &SCF
       MAX_SCF  10
       EPS_SCF     9.9999999999999995E-07
       SCF_GUESS  RESTART
       &OT  T
         MINIMIZER  DIIS
         PRECONDITIONER  FULL_KINETIC
       &END OT
       &OUTER_SCF  T
         EPS_SCF     9.9999999999999995E-07
         MAX_SCF  30
       &END OUTER_SCF
       &PRINT
         &RESTART  SILENT
           ADD_LAST  NUMERIC
           &EACH
             QS_SCF  50
           &END EACH
         &END RESTART
       &END PRINT
     &END SCF
     &QS
       MAP_CONSISTENT  T
       EXTRAPOLATION  ASPC
       EXTRAPOLATION_ORDER  4
     &END QS
     &MGRID
       NGRIDS  5
       CUTOFF     4.6000000000000000E+02
     &END MGRID
     &XC
       DENSITY_CUTOFF     1.0000000000000000E-10
       GRADIENT_CUTOFF     1.0000000000000000E-10
       TAU_CUTOFF     1.0000000000000000E-10
       &XC_GRID
         XC_DERIV  SPLINE2_SMOOTH
       &END XC_GRID
       &XC_FUNCTIONAL  NO_SHORTCUT
         &LIBXC  T
           FUNCTIONAL XC_GGA_X_OPTB88_VDW
         &END LIBXC
         &VWN  T
         &END VWN
       &END XC_FUNCTIONAL
       &VDW_POTENTIAL
         POTENTIAL_TYPE  NON_LOCAL
         &NON_LOCAL
           TYPE  DRSLL
           VERBOSE_OUTPUT  T
           KERNEL_FILE_NAME /users/gtocci/scratch_daint_3000/data_cp2k//vdW_kernel_table.dat
         &END NON_LOCAL
       &END VDW_POTENTIAL
     &END XC
     &REAL_TIME_PROPAGATION
       INITIAL_WFN  SCF_WFN
     &END REAL_TIME_PROPAGATION
     &PRINT
       &MULLIKEN  SILENT
         FILENAME =GRAS.mulliken
       &END MULLIKEN
     &END PRINT
   &END DFT
   &SUBSYS
     &CELL
       A     2.5632000000000001E+01    0.0000000000000000E+00    0.0000000000000000E+00
       B     0.0000000000000000E+00    2.4664400000000022E+01    0.0000000000000000E+00
       C     0.0000000000000000E+00    0.0000000000000000E+00    5.0000000000000028E+01
       MULTIPLE_UNIT_CELL  1 1 1
     &END CELL
     &COORD
C   -6.7443610105588023E+00    1.1903908560425323E+01    4.3900469302246492E+00
C   -5.2809830470019135E+00    1.1881164157487282E+01    4.4735449062605657E+00
C   -4.5706252535344616E+00    1.3125243131973905E+01    4.5706980055839868E+00
C   -3.1396477810271377E+00    1.3098346559034916E+01    4.7425086628843571E+00
C   -6.7460708508694536E+00    1.4370056150518240E+01    4.3537634879672362E+00
C   -5.3218343666021051E+00    1.4373175543110815E+01    4.4478724950203459E+00
C   -4.6003824865354748E+00    1.5569124848894914E+01    4.5392110545664890E+00
C   -3.1704635923834159E+00    1.5602431058450765E+01    4.5324918554736602E+00
C   -6.7205173606620647E+00    1.6805646993456239E+01    4.3522964039362204E+00
C   -5.2661559650944731E+00    1.6819258514205366E+01    4.3926868107229957E+00
C   -4.5501148243242744E+00    1.8031221183813216E+01    4.4437712722200331E+00
C   -3.1121931442418114E+00    1.8077854963823199E+01    4.4483913150582897E+00
C   -6.6952012267107799E+00    1.9269924398379317E+01    4.4238820596509099E+00
C   -5.2838642681915857E+00    1.9279285359479051E+01    4.4603822832348499E+00
C   -4.6077208955988498E+00    2.0540675764257553E+01    4.5059112753362172E+00
C   -3.1487880243640549E+00    2.0533407144745265E+01    4.4819837529076070E+00
C   -6.6791354453926450E+00    2.1758009574125190E+01    4.5306711695372845E+00
C   -5.2885853817766462E+00    2.1756643692077954E+01    4.4957930554084529E+00
C   -4.5843453245711983E+00    1.0615675613432868E+01    4.4308328830593355E+00
C   -3.1640799301133757E+00    1.0644464424956027E+01    4.6504347787025520E+00
C   -2.4932274864213824E+00    1.1860686540764616E+01    4.7416725110149072E+00
C   -1.0250731366691637E+00    1.1859235958450149E+01    4.8004038702484326E+00
C   -3.5161167614300148E-01    1.3120443309384116E+01    4.7730053659049014E+00
C    1.0600020873790061E+00    1.3116499449078754E+01    4.7534969975348424E+00
C   -2.4600299935869532E+00    1.4357341918442790E+01    4.7647283528628570E+00
C   -1.0261375057575808E+00    1.4402136421009542E+01    4.7719914491077802E+00
C   -2.7537894138994917E-01    1.5616609633950418E+01    4.6939879172614285E+00
C    1.1138261695738210E+00    1.5555450084729650E+01    4.6034898472714634E+00
C   -2.4410299366212218E+00    1.6825161565398066E+01    4.5243407726153269E+00
C   -1.0309733267194565E+00    1.6802334153608033E+01    4.6426509390848336E+00
C   -3.0340506425024644E-01    1.8051726304237668E+01    4.5981937373045021E+00
C    1.1059342296969517E+00    1.8047648774635249E+01    4.5604019876699393E+00
C   -2.4352797729692215E+00    1.9335697864120938E+01    4.4892701914980835E+00
C   -9.9002678096769270E-01    1.9300848187569766E+01    4.5443458462234840E+00
C   -2.7728944504041453E-01    2.0523656097104929E+01    4.5973757363076473E+00
C    1.1761865593566203E+00    2.0543397333517699E+01    4.4845806189768584E+00
C   -2.4589472364337901E+00    2.1748264350317019E+01    4.5135363470755641E+00
C   -1.0223750851819420E+00    2.1756682812507822E+01    4.5908013542058379E+00
C   -3.6302689563645701E-01    1.0624307311486083E+01    4.7616780456367458E+00
C    1.0279435389779692E+00    1.0622414778241172E+01    4.6426914713223244E+00
C    1.7493935806508021E+00    1.1889566108384276E+01    4.6838159482973474E+00
C    3.2202731592915228E+00    1.1873666650886284E+01    4.5839324491300975E+00
C    3.9181178580529679E+00    1.3094146145292580E+01    4.5810273044208278E+00
C    5.3584904017033024E+00    1.3118629259416920E+01    4.4990082385692043E+00
C    1.7991236489799143E+00    1.4347048963411815E+01    4.6402281637287688E+00
C    3.2218745384582164E+00    1.4351401275402653E+01    4.5442080660039714E+00
C    3.9527559411298099E+00    1.5600065015109244E+01    4.4047142199203826E+00
C    5.3951280297656217E+00    1.5660915816945710E+01    4.4038721039791424E+00
C    1.8009390736853705E+00    1.6826004237679559E+01    4.5039573185229269E+00
C    3.2049740940999252E+00    1.6834476071760076E+01    4.4315157717402753E+00
C    3.9430375739440753E+00    1.8066924456129367E+01    4.2585624197329564E+00
C    5.3332599156101859E+00    1.8072631622230073E+01    4.2915692544882198E+00
C    1.8410204088647952E+00    1.9289089797363470E+01    4.4390548658830751E+00
C    3.2494514724185120E+00    1.9297563085829033E+01    4.2986066556586708E+00
C    3.9591806693837510E+00    2.0533766621827098E+01    4.3024378979051949E+00
C    5.3591205734806096E+00    2.0505444981039087E+01    4.2164149722005382E+00
C    1.8532966763858949E+00    2.1764887529996805E+01    4.4063015609636711E+00
C    3.2570031484856798E+00    2.1760527889286507E+01    4.3099724339145427E+00
C    3.9440097513902370E+00    1.0591655574970288E+01    4.5308324141073815E+00
C    5.3808415176780944E+00    1.0625163833976421E+01    4.4158239788825044E+00
C   -6.7192892005858278E+00    2.4155994524039571E+01    4.1349045233467905E+00
C   -5.3176412037372431E+00    2.4201915711832743E+01    4.1333972140448898E+00
C   -4.5468903698583718E+00    2.5439400470738715E+01    4.0265195682910013E+00
C   -3.1504461445688179E+00    2.5486707512189827E+01    4.1407453027534791E+00
C   -6.6735538959149148E+00    2.6659541208937007E+01    3.8494508627852677E+00
C   -5.2446759224646886E+00    2.6707123595379429E+01    3.8570717203477520E+00
C   -4.5816366850182542E+00    2.7947940629992065E+01    3.9217044949684148E+00
C   -3.2059897353621856E+00    2.7944422273958434E+01    4.0315722417471500E+00
C   -6.7787584304774464E+00    2.9128379035493037E+01    3.8585542633589003E+00
C   -5.3723654471833333E+00    2.9135505424766183E+01    3.9933160846397993E+00
C   -4.7030926117162775E+00    3.0350609947722763E+01    4.1291000921958583E+00
C   -3.2699255362474036E+00    3.0388407782090166E+01    4.2649364775425127E+00
C   -6.7644641492733069E+00    3.1576621349742233E+01    3.9918600637236143E+00
C   -5.3637910183086088E+00    3.1608753372135823E+01    4.1147466492116083E+00
C   -4.6425183282756235E+00    3.2833113332704777E+01    4.3401502469882036E+00
C   -3.1983729513731047E+00    3.2843262388499980E+01    4.4343406246306047E+00
C   -6.7484298038433073E+00    3.4091677784518957E+01    4.1485380093560336E+00
C   -5.3441905555197060E+00    3.4084585880139379E+01    4.3179030599989510E+00
C   -4.5865784952845852E+00    2.3002692581390356E+01    4.3416548511449164E+00
C   -3.1373962076037789E+00    2.2994592550160327E+01    4.3355169493075607E+00
C   -2.4583574515853095E+00    2.4239811238981439E+01    4.2474036658828140E+00
C   -1.0048940405585620E+00    2.4243584820777013E+01    4.3324782980178593E+00
C   -2.9955226869555202E-01    2.5482028794468601E+01    4.3205766445046834E+00
C    1.1098811244499682E+00    2.5429327826071365E+01    4.3280843432086380E+00
C   -2.4809134198005811E+00    2.6749672580075927E+01    4.1373620797402157E+00
C   -1.0614941904558892E+00    2.6682138909489453E+01    4.2622217189753426E+00
C   -3.1579516362395021E-01    2.7888248378667846E+01    4.2610123588388866E+00
C    1.1059774797810276E+00    2.7911612392171030E+01    4.2749848038330134E+00
C   -2.4946205787657676E+00    2.9180005138508385E+01    4.1598432762809754E+00
C   -1.0853401977789687E+00    2.9116249270032256E+01    4.2362115386953620E+00
C   -3.8828023671028666E-01    3.0339440988515541E+01    4.4523582004831281E+00
C    1.0500946001641671E+00    3.0346089330601320E+01    4.3855867408986322E+00
C   -2.5138766494027669E+00    3.1594195599387827E+01    4.4496158278342186E+00
C   -1.0994081645238316E+00    3.1579685658978008E+01    4.5250875444779508E+00
C   -3.2263862516825642E-01    3.2795756281799740E+01    4.5978075754456409E+00
C    1.1075623153667238E+00    3.2816893810313125E+01    4.6194212767395086E+00
C   -2.4613002644014070E+00    3.4065061319313571E+01    4.5560532203609059E+00
C   -1.0657412899707310E+00    3.4062135853517510E+01    4.7058836804497144E+00
C   -3.1499898814572852E-01    2.3000788755004784E+01    4.4581583311119992E+00
C    1.1468160093312387E+00    2.2955421420927394E+01    4.3629855439407752E+00
C    1.8419251404378838E+00    2.4210132232603726E+01    4.2274284017113724E+00
C    3.3004518049870515E+00    2.4204006376019692E+01    4.2597103949733874E+00
C    3.9560083625113749E+00    2.5432419442606129E+01    4.1650537998244914E+00
C    5.3930876076417382E+00    2.5427679999166806E+01    4.0201039483282779E+00
C    1.7952946849912239E+00    2.6650438137523725E+01    4.3067479401528423E+00
C    3.2499620654983268E+00    2.6669308032664013E+01    4.2615214456118808E+00
C    3.9419825359379099E+00    2.7886600924711619E+01    4.1842633571679002E+00
C    5.4025893631776638E+00    2.7895274174408989E+01    4.0746093163523982E+00
C    1.7875318175982284E+00    2.9143480287678770E+01    4.3142332159372607E+00
C    3.2096574821892703E+00    2.9137827840212481E+01    4.2491004262407737E+00
C    3.9489518218082886E+00    3.0330103447231956E+01    4.2862189929562717E+00
C    5.3983367154850344E+00    3.0326972229113789E+01    4.2033495710099240E+00
C    1.7961358975164075E+00    3.1557588978510697E+01    4.4812850723022715E+00
C    3.2159339099761977E+00    3.1576954568224881E+01    4.4150698268628341E+00
C    3.9195306176482982E+00    3.2814466417467742E+01    4.3868656120198892E+00
C    5.3937427642023126E+00    3.2809095823656421E+01    4.2499687085183648E+00
C    1.7811575619656921E+00    3.4056860364024068E+01    4.6190894329699184E+00
C    3.2080366471817165E+00    3.4003035171714437E+01    4.5416222252167771E+00
C    4.0035164841795305E+00    2.2986839261599084E+01    4.2423501789719564E+00
C    5.4042733262938674E+00    2.2967892399065679E+01    4.1283766328076501E+00
C    6.0872608710688274E+00    1.1889097309392964E+01    4.4814507097237470E+00
C    7.5322489740982270E+00    1.1904352392180517E+01    4.5197227545836141E+00
C    8.2118932105624829E+00    1.3136669947153996E+01    4.5236425743042927E+00
C    9.6226092681475013E+00    1.3101243307003465E+01    4.5032794771995830E+00
C    6.0953542773316460E+00    1.4392435677114698E+01    4.4461721540152528E+00
C    7.5089178831794845E+00    1.4388804619058496E+01    4.5739888918188436E+00
C    8.2125385802154156E+00    1.5616647187156067E+01    4.5634741818650451E+00
C    9.6091563829163391E+00    1.5585910579253792E+01    4.5544425778076816E+00
C    6.0743987161637909E+00    1.6886081076153445E+01    4.4484767786424024E+00
C    7.4944978475808632E+00    1.6850385454584398E+01    4.4953946180950668E+00
C    8.2167910164134774E+00    1.8067495238498509E+01    4.4004508695989974E+00
C    9.6454162099163270E+00    1.8031032371657908E+01    4.4913678283061946E+00
C    6.0416051538233724E+00    1.9298295137345892E+01    4.2852753294288091E+00
C    7.5034866757199632E+00    1.9281886971224946E+01    4.2893089616826714E+00
C    8.1935982672558492E+00    2.0516621615235707E+01    4.2718485426482129E+00
C    9.5985811129340082E+00    2.0542974790405534E+01    4.3826537917965043E+00
C    6.0921381595893536E+00    2.1739689994422985E+01    4.1512222690078371E+00
C    7.5074316353527522E+00    2.1760783402553216E+01    4.2294017607818999E+00
C    8.2341431294756280E+00    1.0694689646805299E+01    4.4325699881371712E+00
C    9.6859975525542055E+00    1.0656388719419288E+01    4.3805508473899586E+00
C    1.0390873324858793E+01    1.1906054038355553E+01    4.3874929972137569E+00
C    1.1824536261344464E+01    1.1902032812339387E+01    4.3450327087327727E+00
C    1.2553657706459543E+01    1.3119943649253127E+01    4.3639338662726423E+00
C    1.3955337810302888E+01    1.3120591247491541E+01    4.4127913122777009E+00
C    1.0375609163303729E+01    1.4310886888326955E+01    4.4828294652700427E+00
C    1.1817389597121586E+01    1.4360364054821954E+01    4.3769220443791479E+00
C    1.2479653582789666E+01    1.5599830904072604E+01    4.3563852363498210E+00
C    1.3875737176396500E+01    1.5540549699278895E+01    4.4210301450316081E+00
C    1.0321975695997880E+01    1.6814276448473365E+01    4.4949608102286813E+00
C    1.1733777062153150E+01    1.6797830400344218E+01    4.4348650211949412E+00
C    1.2443050300841405E+01    1.8004859086153676E+01    4.4789251659912050E+00
C    1.3876343107156133E+01    1.7986849180635140E+01    4.4582609035050815E+00
C    1.0331744611138960E+01    1.9259591738561962E+01    4.4615898378876677E+00
C    1.1785648086457513E+01    1.9250378406951267E+01    4.5402510199666111E+00
C    1.2498959705117512E+01    2.0506562142887418E+01    4.4982259460230996E+00
C    1.3922817388089753E+01    2.0480559160684699E+01    4.4439258346633448E+00
C    1.0302002358981410E+01    2.1784179999542761E+01    4.4224481055047109E+00
C    1.1789121369591674E+01    2.1755469759202718E+01    4.5182593723446587E+00
C    1.2506559341611304E+01    1.0686666048398640E+01    4.2753540084757935E+00
C    1.3925065922699062E+01    1.0697397650149711E+01    4.2411580469856238E+00
C    1.4627033328681437E+01    1.1903624744947956E+01    4.3603996629010258E+00
C    1.6027862323337494E+01    1.1899486651817192E+01    4.2478043005563224E+00
C    1.6710163096775808E+01    1.3149706031993123E+01    4.2926481479501089E+00
C    1.8154062818799023E+01    1.3152211866049520E+01    4.2732116992029407E+00
C    1.4604887251941790E+01    1.4331089974305625E+01    4.4293968501501935E+00
C    1.6058905135014321E+01    1.4388651391873633E+01    4.3649696200690506E+00
C    1.6755364912753137E+01    1.5595019834330833E+01    4.2777428374516111E+00
C    1.8193795436169136E+01    1.5634156921507532E+01    4.2964889391341865E+00
C    1.4617691838338743E+01    1.6769352171115365E+01    4.4229869393379575E+00
C    1.6041453368175532E+01    1.6807229530926904E+01    4.3270511115966848E+00
C    1.6814091076391463E+01    1.8033997509291893E+01    4.4618859052254036E+00
C    1.8234333723118439E+01    1.8043175781073661E+01    4.4048870798101509E+00
C    1.4617964186458716E+01    1.9232244850931078E+01    4.4590795918096644E+00
C    1.6101087149876371E+01    1.9269309061978362E+01    4.4589605526906304E+00
C    1.6796447040635808E+01    2.0521937221894813E+01    4.4792480486192039E+00
C    1.8231277440825661E+01    2.0523340378770978E+01    4.4836813145169359E+00
C    1.4639409619066120E+01    2.1694647596267220E+01    4.3887062276611815E+00
C    1.6053188849642321E+01    2.1728711871024696E+01    4.3612466093662761E+00
C    1.6769670393810795E+01    1.0692946652038589E+01    4.1354361095370908E+00
C    1.8203591991181518E+01    1.0680553973362606E+01    4.2519581551142407E+00
C    6.1350783050934332E+00    2.4210621269803134E+01    3.9941345536820165E+00
C    7.5680149323752444E+00    2.4196436396962952E+01    4.0746237449677132E+00
C    8.2072518645749906E+00    2.5465417421391400E+01    4.1081317835668658E+00
C    9.6430820204865615E+00    2.5474533110354912E+01    4.2432659773609069E+00
C    6.1028826898253010E+00    2.6664229698197410E+01    4.0607061864545537E+00
C    7.5430332536474181E+00    2.6719989599542565E+01    4.0630794738125466E+00
C    8.2517855926255841E+00    2.7937692300063048E+01    4.2331448564424159E+00
C    9.6959220719670558E+00    2.7921414934100472E+01    4.2455756066377273E+00
C    6.1397968224462165E+00    2.9136339313136116E+01    4.1702133653119642E+00
C    7.5770629645002110E+00    2.9152535566449654E+01    4.1997402769653602E+00
C    8.2531298279859566E+00    3.0444525300354449E+01    4.1798509189833597E+00
C    9.6842089321510549E+00    3.0416944117510791E+01    4.2192405381912055E+00
C    6.0886779541672356E+00    3.1573539352542422E+01    4.2046906134020992E+00
C    7.4889724180005510E+00    3.1656719006230222E+01    4.2243906128796560E+00
C    8.2364352897757325E+00    3.2883390960006388E+01    4.3348658264078050E+00
C    9.6781702474913374E+00    3.2834308768517076E+01    4.3383424552397027E+00
C    6.0748154315361846E+00    3.4059546260028512E+01    4.3198688876737972E+00
C    7.5243454406029944E+00    3.4118591189312902E+01    4.4328611828008704E+00
C    8.2398020999148400E+00    2.2975648259401613E+01    4.2305842691821596E+00
C    9.6431909159076099E+00    2.3023120024436274E+01    4.3892839358303926E+00
C    1.0346934995681194E+01    2.4247568738218160E+01    4.3613043885338083E+00
C    1.1755280927776953E+01    2.4244561543274724E+01    4.3805531282047570E+00
C    1.2483627353828178E+01    2.5469904922500067E+01    4.3010706074324947E+00
C    1.3917168068999718E+01    2.5433856767296444E+01    4.2583876635410727E+00
C    1.0342271735047147E+01    2.6699395635391234E+01    4.3068906579375605E+00
C    1.1776128538920467E+01    2.6721156408498370E+01    4.2713507639722090E+00
C    1.2502425468425677E+01    2.7936435464600834E+01    4.1969099035439399E+00
C    1.3946527855885940E+01    2.7880027464128823E+01    4.1175332208970170E+00
C    1.0384599343739445E+01    2.9177703400593163E+01    4.1950900428553926E+00
C    1.1829240696789395E+01    2.9192613742777770E+01    4.2282153234440996E+00
C    1.2541067026933883E+01    3.0426502643024413E+01    4.2367501734824753E+00
C    1.3968522176892955E+01    3.0392920690246914E+01    4.1018854282566624E+00
C    1.0404177372088641E+01    3.1665209249391079E+01    4.3482952820285092E+00
C    1.1828135340603131E+01    3.1662782468594454E+01    4.3230272011474780E+00
C    1.2516240118277688E+01    3.2900079097951370E+01    4.2408584811855112E+00
C    1.3932123084230527E+01    3.2883703539517533E+01    4.0958266377741301E+00
C    1.0368423819904907E+01    3.4102721437330828E+01    4.3179374007096669E+00
C    1.1810212406376452E+01    3.4127437459642813E+01    4.3016148835671784E+00
C    1.2492803975859323E+01    2.2979564988790393E+01    4.3848387917327871E+00
C    1.3924288518058964E+01    2.2922633734792566E+01    4.3636181188500061E+00
C    1.4634477985534028E+01    2.4176219185984365E+01    4.3182164501282001E+00
C    1.6091727151347502E+01    2.4161060041785341E+01    4.2416141548862338E+00
C    1.6801793043379817E+01    2.5393449253372413E+01    4.0494778194962553E+00
C    1.8219644181177390E+01    2.5393592156209607E+01    4.0061857605856677E+00
C    1.4638427886521807E+01    2.6633733884676669E+01    4.1134937515197558E+00
C    1.6093879604563860E+01    2.6605091034087454E+01    3.9936775741811514E+00
C    1.6788487162506517E+01    2.7833703611804001E+01    3.9168474111173075E+00
C    1.8207974382398820E+01    2.7820089655488147E+01    3.8219499955097147E+00
C    1.4661981787633882E+01    2.9126817264439239E+01    4.0402815860720409E+00
C    1.6067797100757669E+01    2.9084772927357765E+01    3.8851582162682123E+00
C    1.6722625176589975E+01    3.0387344267409471E+01    3.8689635201846198E+00
C    1.8163855395916322E+01    3.0345260423648263E+01    3.8971639950719337E+00
C    1.4658717918023775E+01    3.1644970923944712E+01    3.9451391681128727E+00
C    1.6027178715258149E+01    3.1638907806220985E+01    3.7798594317072438E+00
C    1.6774025939811011E+01    3.2875836997578133E+01    3.7768815616597844E+00
C    1.8153299589881474E+01    3.2834802215987260E+01    3.9877435075207561E+00
C    1.4617806701319759E+01    3.4106612149467239E+01    4.0451020546571366E+00
C    1.6063857505780966E+01    3.4117749814343220E+01    3.9214259196869241E+00
C    1.6784804932087567E+01    2.2970159194547623E+01    4.3443713558912664E+00
C    1.8212862344535026E+01    2.2952161913455054E+01    4.3314738643714996E+00
O    1.3759065879082101E+02    8.0068053336759277E+01    2.1593364978412637E+01
H    1.3658619735170998E+02    8.0373344237153503E+01    2.1638771792358693E+01
H    1.3798303596051937E+02    8.0516777128213590E+01    2.2332628900311409E+01
O    1.2151167733385390E+02    1.3462933289050903E+02    1.3225548464626439E+01
H    1.2074522279177967E+02    1.3463467459796041E+02    1.3805774065248320E+01
H    1.2223463938988984E+02    1.3408791132779163E+02    1.3635588778518906E+01
O    7.9955704871426235E+01    2.3442820882124934E+02    1.1485929830323695E+01
H    8.0423862982875946E+01    2.3392575242883285E+02    1.2135414201158371E+01
H    7.9194995767328734E+01    2.3497415391466569E+02    1.1881271131913339E+01
O    1.9759170970013676E+02    1.0315268431542556E+02    1.4791721982635273E+01
H    1.9748758323195807E+02    1.0336413840171556E+02    1.5747857478365731E+01
H    1.9771541058740664E+02    1.0392702277463060E+02    1.4229387055497600E+01
O    8.1733959644967697E+01    2.0134658317100295E+02    1.2813448633387662E+01
H    8.1907665478577243E+01    2.0187616071178226E+02    1.2027029831981546E+01
H    8.1252280968771814E+01    2.0199613452117842E+02    1.3336939760630825E+01
O    1.0813969220380882E+02    8.2508004050420595E+01    1.2100188457717810E+01
H    1.0888532263253420E+02    8.2421505804039114E+01    1.1435948488594297E+01
H    1.0856867777764352E+02    8.2422004533735219E+01    1.3006808662328668E+01
O    1.6024502475703011E+02    9.4124288221798324E+01    1.3904003188557180E+01
H    1.6048089726873729E+02    9.5117930219731363E+01    1.3984467200342683E+01
H    1.5936480512953764E+02    9.4005991943721241E+01    1.4424177688699579E+01
O    1.2144795490082100E+02    5.1622975628781113E+01    1.7292470515627013E+01
H    1.2084943207367876E+02    5.1096405387971828E+01    1.7831840357182955E+01
H    1.2129573736873395E+02    5.2607269199417267E+01    1.7522254835515692E+01
O    1.6129161648102897E+01    2.0623441732388829E+02    1.7946452918615581E+01
H    1.6272857518731502E+01    2.0717608461452022E+02    1.8292320062931093E+01
H    1.5874706827864973E+01    2.0568197763028417E+02    1.8734760379723255E+01
O    2.1479543927009766E+02    1.6074761186754372E+02    2.1485737223840275E+01
H    2.1390207272579804E+02    1.6086142068712962E+02    2.1056249330301622E+01
H    2.1493853974622346E+02    1.5979267127594360E+02    2.1673667943650461E+01
O    9.3708354251149473E+01    1.1950810029179874E+02    2.2171931141965409E+01
H    9.3157438658250229E+01    1.1923993803138079E+02    2.1313895312295838E+01
H    9.4303031565035965E+01    1.1876372340656003E+02    2.2437207498318582E+01
O    8.5977205038185602E+01    1.5239309852558412E+02    1.7832484310967573E+01
H    8.6046689653844211E+01    1.5142814738039402E+02    1.7993792116911060E+01
H    8.5304511111264674E+01    1.5229899718170569E+02    1.7101481105712548E+01
O    1.0811328875234598E+02    1.3414222284758699E+01    1.3812011646164251E+01
H    1.0902457185673316E+02    1.3500900867531669E+01    1.3494107970334444E+01
H    1.0797790274894514E+02    1.2421817357896876E+01    1.3812118622064913E+01
O    1.0481438387410519E+02    4.4004461626728437E+00    1.6077484578833769E+01
H    1.0548127046103949E+02    4.1282217541289157E+00    1.6757842367235963E+01
H    1.0392960527689888E+02    4.3424750962515866E+00    1.6467748094145609E+01
O    4.6575591079036847E+01    2.4664847020928775E+02    2.3228696055235300E+01
H    4.6920966431655316E+01    2.4597138501632332E+02    2.2559749632031711E+01
H    4.6426319055050108E+01    2.4745364468615733E+02    2.2657242595746297E+01
O    1.2082507751082721E+02    1.4792346204477460E+02    1.4963869205256479E+01
H    1.2038139931502876E+02    1.4879048132766522E+02    1.4917362300247120E+01
H    1.2055949044867144E+02    1.4745807559058449E+02    1.5813034247029798E+01
O    1.0466257832044479E+02    1.2467947647868968E+02    1.8626744954321374E+01
H    1.0512219980595576E+02    1.2390134902257323E+02    1.9166055925688138E+01
H    1.0398412276445630E+02    1.2421600507661111E+02    1.8105020489385410E+01
O    1.3331016758844368E+02    1.1389981374751986E+02    2.0553052764952323E+01
H    1.3252510140488164E+02    1.1391035462776166E+02    1.9966065301559720E+01
H    1.3405091945814337E+02    1.1401084716540119E+02    1.9932682792478868E+01
O    1.0280887410252606E+02    8.5309291596928787E+01    1.5455837171136981E+01
H    1.0250065731405454E+02    8.4907656284988448E+01    1.6311552084139585E+01