 # Version information for this restart file 
 # current date 2020-01-19 14:05:20.701
 # current working dir /scratch/snx3000/gtocci/gtocci/MEMBRANES/AIMD_US_IONS_BN/aimd_us_iodide/us_24
 # Program compiled at                              Fri Nov 22 15:19:42 CET 2019
 # Program compiled on                                                  daint102
 # Program compiled for                                   CRAY_XC50-gfortran_gpu
 # Source code revision number                                       git:a698b45
 &GLOBAL
   PRINT_LEVEL  LOW
   PROJECT_NAME BNS
   RUN_TYPE  MD
   WALLTIME 86400
 &END GLOBAL
 &MOTION
   &MD
     ENSEMBLE  NVT
     STEPS  2000
     TIMESTEP     9.9999999999999989E-01
     STEP_START_VAL  44870
     TIME_START_VAL     4.4869999999984720E+04
     ECONS_START_VAL    -8.4829128710106106E+03
     TEMPERATURE     3.0000000000000000E+02
     TEMP_KIND  T
     &BAROSTAT
       PRESSURE     1.0000000000000000E+00
       TIMECON     9.9999999999999986E+01
       VIRIAL  Z
     &END BAROSTAT
     &THERMOSTAT
       TYPE  NOSE
       REGION  GLOBAL
       &NOSE
         LENGTH  4
         TIMECON     9.9999999999999986E+01
         MTS  2
         &COORD
               3.0572357694125585E-01   -1.0453256809613748E+01    3.8512331385608820E+00    9.7654703195953658E+00
         &END COORD
         &VELOCITY
              -1.0799238140352096E-07   -2.2507554747072827E-04   -1.9340354132295614E-04   -5.1035875012788709E-05
         &END VELOCITY
         &MASS
               7.0145132684705392E+07    1.6237299232570693E+04    1.6237299232570693E+04    1.6237299232570693E+04
         &END MASS
         &FORCE
              -9.4575051007022018E-12   -5.8459632478919070E-08   -7.8510117808570181E-09   -2.1105084053844667E-08
         &END FORCE
       &END NOSE
     &END THERMOSTAT
     &AVERAGES  T
       &RESTART_AVERAGES
         ITIMES_START  1
         AVECPU     2.4120525976321325E+01
         AVEHUGONIOT     0.0000000000000000E+00
         AVETEMP_BARO     0.0000000000000000E+00
         AVEPOT    -8.4857808661771032E+03
         AVEKIN     2.0548683738734148E+00
         AVETEMP     3.0040524872535207E+02
         AVEKIN_QM     0.0000000000000000E+00
         AVETEMP_QM     0.0000000000000000E+00
         AVEVOL     2.2086622704881485E+05
         AVECELL_A     4.9287836997924948E+01
         AVECELL_B     4.7426456757033776E+01
         AVECELL_C     9.4486306644279921E+01
         AVEALPHA     9.0000000000000000E+01
         AVEBETA     9.0000000000000000E+01
         AVEGAMMA     9.0000000000000000E+01
         AVE_ECONS     4.8430367728141256E+01
         AVE_PRESS     0.0000000000000000E+00
         AVE_PXX     0.0000000000000000E+00
       &END RESTART_AVERAGES
     &END AVERAGES
     &PRINT
       &TEMP_KIND  SILENT
       &END TEMP_KIND
     &END PRINT
   &END MD
   &FREE_ENERGY
     &METADYN
       MIN_DISP    -1.0000000000000000E+00
       OLD_HILL_NUMBER  0
       OLD_HILL_STEP  0
       DO_HILLS  F
       STEP_START_VAL  44870
       NHILLS_START_VAL  0
       &METAVAR
         SCALE     1.0000000000000000E+00
         COLVAR  1
       &END METAVAR
       &PRINT
         &COLVAR  SILENT
           COMMON_ITERATION_LEVELS  3
           &EACH
             MD  1
           &END EACH
         &END COLVAR
       &END PRINT
     &END METADYN
   &END FREE_ENERGY
   &CONSTRAINT
     &COLLECTIVE
       COLVAR  1
       INTERMOLECULAR  T
       &RESTRAINT
         K     4.4625385281452931E-04
       &END RESTRAINT
     &END COLLECTIVE
     &COLVAR_RESTART
           2.2899047338579933E+01
     &END COLVAR_RESTART
   &END CONSTRAINT
   &PRINT
     &TRAJECTORY  SILENT
       &EACH
         MD  1
       &END EACH
     &END TRAJECTORY
     &VELOCITIES  SILENT
       &EACH
         MD  1
       &END EACH
     &END VELOCITIES
     &FORCES  SILENT
       UNIT eV*angstrom^-1
       &EACH
         MD  1
       &END EACH
     &END FORCES
     &RESTART  SILENT
       &EACH
         MD  1
       &END EACH
     &END RESTART
     &RESTART_HISTORY  SILENT
       &EACH
         MD  100
       &END EACH
     &END RESTART_HISTORY
   &END PRINT
 &END MOTION
 &FORCE_EVAL
   METHOD  QS
   &DFT
     BASIS_SET_FILE_NAME /users/gtocci/scratch_daint_3000/data_cp2k//BASIS_MOLOPT
     POTENTIAL_FILE_NAME /users/gtocci/scratch_daint_3000/data_cp2k//GTH_POTENTIALS
     WFN_RESTART_FILE_NAME ./BNS-RESTART.wfn
     CHARGE  -1
     &SCF
       MAX_SCF  10
       EPS_SCF     9.9999999999999995E-07
       SCF_GUESS  RESTART
       &OT  T
         MINIMIZER  DIIS
         PRECONDITIONER  FULL_KINETIC
       &END OT
       &OUTER_SCF  T
         EPS_SCF     9.9999999999999995E-07
         MAX_SCF  30
       &END OUTER_SCF
       &PRINT
         &RESTART  SILENT
           ADD_LAST  NUMERIC
           &EACH
             QS_SCF  50
           &END EACH
         &END RESTART
       &END PRINT
     &END SCF
     &QS
       MAP_CONSISTENT  T
       EXTRAPOLATION  ASPC
       EXTRAPOLATION_ORDER  4
     &END QS
     &MGRID
       NGRIDS  5
       CUTOFF     4.6000000000000000E+02
     &END MGRID
     &XC
       DENSITY_CUTOFF     1.0000000000000000E-10
       GRADIENT_CUTOFF     1.0000000000000000E-10
       TAU_CUTOFF     1.0000000000000000E-10
       &XC_GRID
         XC_DERIV  SPLINE2_SMOOTH
       &END XC_GRID
       &XC_FUNCTIONAL  NO_SHORTCUT
         &LIBXC  T
           FUNCTIONAL XC_GGA_X_OPTB88_VDW
         &END LIBXC
         &VWN  T
         &END VWN
       &END XC_FUNCTIONAL
       &VDW_POTENTIAL
         POTENTIAL_TYPE  NON_LOCAL
         &NON_LOCAL
           TYPE  DRSLL
           VERBOSE_OUTPUT  T
           KERNEL_FILE_NAME /users/gtocci/scratch_daint_3000/data_cp2k//vdW_kernel_table.dat
           CUTOFF     3.6000000000000000E+02
         &END NON_LOCAL
       &END VDW_POTENTIAL
     &END XC
     &REAL_TIME_PROPAGATION
       INITIAL_WFN  SCF_WFN
     &END REAL_TIME_PROPAGATION
     &PRINT
       &MULLIKEN  SILENT
         FILENAME =BNS.mulliken
       &END MULLIKEN
     &END PRINT
   &END DFT
   &SUBSYS
     &CELL
       A     2.6082000000000019E+01    0.0000000000000000E+00    0.0000000000000000E+00
       B     0.0000000000000000E+00    2.5097000000000001E+01    0.0000000000000000E+00
       C     0.0000000000000000E+00    0.0000000000000000E+00    5.0000000000000028E+01
       MULTIPLE_UNIT_CELL  1 1 1
     &END CELL
     &COORD
B   -1.1696364006595644E+01    8.8888519624585616E+00   -3.4055476365674203E+01
B   -9.5377001460066388E+00    1.0157340324489722E+01   -3.3785982189015186E+01
B   -1.1681855665716888E+01    1.1397835135327631E+01   -3.3926472167211777E+01
B   -9.4950547752151486E+00    1.2650334026729334E+01   -3.3772099269948278E+01
B   -1.1722764654319093E+01    1.3920588005883168E+01   -3.3791655206171562E+01
B   -9.4683841963750979E+00    1.5215865894052767E+01   -3.3810876154930419E+01
B   -1.1688737924467878E+01    1.6449839327889478E+01   -3.3778324379898997E+01
B   -9.4906775889571779E+00    1.7663831515320194E+01   -3.3751247679842088E+01
B   -1.1623939579388869E+01    1.8946366338487696E+01   -3.3763268874576617E+01
B   -9.4871101248580931E+00    2.0225072018291698E+01   -3.3924700712109626E+01
B   -7.3587987689500842E+00    8.8917781638182625E+00   -3.3852764457767442E+01
B   -5.1869629174812673E+00    1.0128122504387020E+01   -3.3902787368427823E+01
B   -7.3096316506122472E+00    1.1405462096646440E+01   -3.3906708444720216E+01
B   -5.1479431240526727E+00    1.2738734760351674E+01   -3.4088766389080000E+01
B   -7.2879917888732884E+00    1.3936479102496270E+01   -3.3939915518753260E+01
B   -5.1168703951630343E+00    1.5225672950140613E+01   -3.3970434288006501E+01
B   -7.2615368498170270E+00    1.6416276320560812E+01   -3.3774465240565711E+01
B   -5.1267751695164137E+00    1.7700803694186174E+01   -3.3859764961181931E+01
B   -7.2824926177226752E+00    1.8913665417259800E+01   -3.3748625766834607E+01
B   -5.1311397887879968E+00    2.0130211355963748E+01   -3.3597430791926087E+01
B   -2.9633519669336734E+00    8.9059156219820323E+00   -3.3806902893994973E+01
B   -7.7175142440599254E-01    1.0103941990520482E+01   -3.3866798645624201E+01
B   -2.9712088938485643E+00    1.1382453673706831E+01   -3.4057968043050394E+01
B   -7.8080821322504212E-01    1.2636133904804501E+01   -3.4051381843254241E+01
B   -2.9313099489276082E+00    1.3930330465084355E+01   -3.4221421655348777E+01
B   -7.9680608753883198E-01    1.5190488400012217E+01   -3.4290114047403229E+01
B   -2.9408087545249781E+00    1.6432875004752766E+01   -3.4061554867329427E+01
B   -7.4922166047190542E-01    1.7696539346587187E+01   -3.4164363265111760E+01
B   -2.9588184691360637E+00    1.8907729577407089E+01   -3.3745433802133313E+01
B   -7.1572802596580054E-01    2.0162440974936001E+01   -3.3973108680249808E+01
N   -1.0251427488918013E+01    8.8671743952876376E+00   -3.3921554107999711E+01
N   -8.0855018859421737E+00    1.0145371459932326E+01   -3.3845609104748299E+01
N   -1.0259973026123294E+01    1.1399221753244666E+01   -3.3776311013974613E+01
N   -8.0259032937107708E+00    1.2675333826047364E+01   -3.3891402703259558E+01
N   -1.0242247746539485E+01    1.3899623654459084E+01   -3.3839315702286832E+01
N   -8.0451000258571153E+00    1.5151813899367815E+01   -3.3757533177102950E+01
N   -1.0236265365698385E+01    1.6456622725329133E+01   -3.3846824304701336E+01
N   -8.0456661482994249E+00    1.7614887700293139E+01   -3.3674895921431151E+01
N   -1.0203651004030643E+01    1.8972198519377898E+01   -3.3712117815838909E+01
N   -8.0450263521977661E+00    2.0202111252210713E+01   -3.3742798717597104E+01
N   -5.9168054419843257E+00    8.8840782435288546E+00   -3.3756704484103430E+01
N   -3.7048210272633355E+00    1.0129831836414018E+01   -3.3953300680716445E+01
N   -5.8600154935372810E+00    1.1412570266788832E+01   -3.3988819943662421E+01
N   -3.6467756519933929E+00    1.2686888644480222E+01   -3.4144570950126486E+01
N   -5.8234064793398819E+00    1.4003110834976040E+01   -3.4038225984996991E+01
N   -3.6423818276890696E+00    1.5184856060774448E+01   -3.4218400461376142E+01
N   -5.8357696999139250E+00    1.6462643249179724E+01   -3.3809884702322492E+01
N   -3.6835622875181526E+00    1.7694567181871399E+01   -3.3865909736895595E+01
N   -5.8649196688100940E+00    1.8922817945236009E+01   -3.3786715948903364E+01
N   -3.6774747544260236E+00    2.0131463053591485E+01   -3.3506418614167515E+01
N   -1.4960903442701483E+00    8.8871752196482348E+00   -3.3693288543259882E+01
N    6.9790034036925308E-01    1.0096015956947561E+01   -3.3806918038941411E+01
N   -1.5281736140117570E+00    1.1391361138531934E+01   -3.4003311507580491E+01
N    6.9732340826182238E-01    1.2606280892879969E+01   -3.3885716191783935E+01
N   -1.4870108152571742E+00    1.3918649622105038E+01   -3.4194996167793931E+01
N    6.7488073368695689E-01    1.5104836855368069E+01   -3.4220882931200322E+01
N   -1.5151012716936665E+00    1.6407756828669264E+01   -3.4274324484090592E+01
N    7.3218899056489062E-01    1.7715439815731653E+01   -3.4263823130791529E+01
N   -1.5021252342041695E+00    1.8924922967653053E+01   -3.4019259193865764E+01
N    7.3951290086234889E-01    2.0182501370002363E+01   -3.4133911762021171E+01
B   -1.1643757016449113E+01    2.1479567583619573E+01   -3.4100468639857617E+01
B   -9.4742338814179980E+00    2.2694713244363022E+01   -3.3908837592130588E+01
B   -1.1610195993321781E+01    2.3903583922394198E+01   -3.3890476717369438E+01
B   -9.4041370327030283E+00    2.5182132511545756E+01   -3.3800551976856681E+01
B   -1.1658608479278161E+01    2.6420073877907829E+01   -3.3538755297554403E+01
B   -9.4595826831540961E+00    2.7679774997833654E+01   -3.3725836884781380E+01
B   -1.1618566801831694E+01    2.8993441904562033E+01   -3.3578161073206338E+01
B   -9.4707456194322024E+00    3.0229821197848185E+01   -3.3613903856121809E+01
B   -1.1659795991634789E+01    3.1433994009171769E+01   -3.3926128710264912E+01
B   -9.4801926104047993E+00    3.2733020444884751E+01   -3.3864360190251666E+01
B   -7.2799514546741309E+00    2.1403595318595908E+01   -3.3759256122856904E+01
B   -5.0629058194715633E+00    2.2676584876860133E+01   -3.3552275231497639E+01
B   -7.2500928944819334E+00    2.3886265944124098E+01   -3.3750252075319800E+01
B   -5.0777031454655424E+00    2.5192747959745386E+01   -3.3464513285434691E+01
B   -7.2160680632218286E+00    2.6436339040195364E+01   -3.3678012766793465E+01
B   -5.1406928408782235E+00    2.7694010296509763E+01   -3.3440189163567148E+01
B   -7.3054750541461990E+00    2.9000594480993616E+01   -3.3678958544421228E+01
B   -5.1009104094789990E+00    3.0193074478814914E+01   -3.3652341726450331E+01
B   -7.2685568739194499E+00    3.1499178559896052E+01   -3.3680675274494099E+01
B   -5.1204795425701333E+00    3.2747519473665086E+01   -3.3768585999478923E+01
B   -2.9177950526272221E+00    2.1384210375584882E+01   -3.3451202339475479E+01
B   -7.5611509161404278E-01    2.2652386274202122E+01   -3.3374482041145960E+01
B   -2.8702583233644967E+00    2.3932255706136331E+01   -3.3253474598823509E+01
B   -7.0798705092029190E-01    2.5201075453834459E+01   -3.3201180961497307E+01
B   -2.9253954306428858E+00    2.6478400146593437E+01   -3.3242742161795718E+01
B   -7.5858455233769351E-01    2.7700467742981132E+01   -3.3279520979409419E+01
B   -2.9231693838871786E+00    2.8960249852440420E+01   -3.3412372368278916E+01
B   -7.8073989457827464E-01    3.0239299227350010E+01   -3.3500573070235809E+01
B   -2.9804081894034860E+00    3.1477307865054776E+01   -3.3692584689569209E+01
B   -7.9344517534069781E-01    3.2701687860867430E+01   -3.3643059553561734E+01
N   -1.0168006501019029E+01    2.1467147353300305E+01   -3.4110987177764962E+01
N   -8.0196767583568160E+00    2.2685984254073517E+01   -3.3708009694862554E+01
N   -1.0140730981255013E+01    2.3930674381049229E+01   -3.3871540310839130E+01
N   -7.9676738325573169E+00    2.5176593550730125E+01   -3.3848497032646982E+01
N   -1.0164108159900149E+01    2.6441106021498165E+01   -3.3699394893547392E+01
N   -7.9749971946119027E+00    2.7704586950573244E+01   -3.3712720663330174E+01
N   -1.0185985741602263E+01    2.8942166089846694E+01   -3.3697793908414880E+01
N   -8.0069718163976944E+00    3.0232745501888978E+01   -3.3644620576089707E+01
N   -1.0257917503192923E+01    3.1453271091665279E+01   -3.3762021666971030E+01
N   -8.0035597643021266E+00    3.2737276595334428E+01   -3.3772629729234438E+01
N   -5.8142026977889811E+00    2.1426113746237426E+01   -3.3508951489848677E+01
N   -3.5587862005453732E+00    2.2668153728027612E+01   -3.3302481243422868E+01
N   -5.7690067722588942E+00    2.3936790190567891E+01   -3.3613992347738211E+01
N   -3.6267472441294801E+00    2.5184451585844286E+01   -3.3339525773782739E+01
N   -5.8464622436845692E+00    2.6436395492990112E+01   -3.3492266479109553E+01
N   -3.6678895361115811E+00    2.7718306449174513E+01   -3.3142737681949406E+01
N   -5.8674112088222126E+00    2.8944533318618884E+01   -3.3710905675391871E+01
N   -3.6296489503570397E+00    3.0212041007352969E+01   -3.3593186705461356E+01
N   -5.7959972679730845E+00    3.1481473200897145E+01   -3.3685241434037749E+01
N   -3.6659366361538752E+00    3.2714012099656507E+01   -3.3856366451276159E+01
N   -1.4345885821349331E+00    2.1361233455086300E+01   -3.3555793303546032E+01
N    7.3837603294051735E-01    2.2732421621629779E+01   -3.3536121884023359E+01
N   -1.4423118975067586E+00    2.3943168920256269E+01   -3.3213525636323901E+01
N    7.3689870672458679E-01    2.5245411410252643E+01   -3.3327657881437965E+01
N   -1.4765357029100517E+00    2.6448546065328163E+01   -3.3140106465099564E+01
N    7.3252478796699527E-01    2.7751371801449576E+01   -3.3380618909232759E+01
N   -1.4893828767793826E+00    2.8922658722434885E+01   -3.3419968869196211E+01
N    6.7248579957312460E-01    3.0242359557292989E+01   -3.3495341328474218E+01
N   -1.5154648649407345E+00    3.1502653236492733E+01   -3.3603943356891840E+01
N    6.2129840165035244E-01    3.2730586977208638E+01   -3.3706672166376649E+01
B    1.4314827787469142E+00    8.8994644060000283E+00   -3.3744341144893468E+01
B    3.6320870196557253E+00    1.0138508020050660E+01   -3.3808599788109113E+01
B    1.4299556864853553E+00    1.1353413788578894E+01   -3.3897663288038586E+01
B    3.5347115994589262E+00    1.2660539714578320E+01   -3.3790346985984542E+01
B    1.4210834564342891E+00    1.3914638105924208E+01   -3.3932147435889590E+01
B    3.5645000109274849E+00    1.5150694553137368E+01   -3.3901834943562896E+01
B    1.4303371438375028E+00    1.6480973868262236E+01   -3.4177450702059460E+01
B    3.5855538793740331E+00    1.7698607046488597E+01   -3.4077660178575123E+01
B    1.4195366417531778E+00    1.8959667700238267E+01   -3.4242729083563894E+01
B    3.6407085561478545E+00    2.0207300353902699E+01   -3.4133917573287405E+01
B    5.7822903127115843E+00    8.8526817243118110E+00   -3.3566278150959590E+01
B    7.9575085411932340E+00    1.0128957459528506E+01   -3.3746123648217960E+01
B    5.7729639289447849E+00    1.1389208869729178E+01   -3.3734941076139251E+01
B    7.9347487719652339E+00    1.2629242906596732E+01   -3.3897888811486844E+01
B    5.7555170203775505E+00    1.3932926400438555E+01   -3.3787433924578664E+01
B    7.8799209935951193E+00    1.5180719212314386E+01   -3.3786310382463682E+01
B    5.7787461454754565E+00    1.6455585879332574E+01   -3.4000463907796792E+01
B    7.9519952847977944E+00    1.7696890806851371E+01   -3.3902615744586676E+01
B    5.8118342594619357E+00    1.8949407977843798E+01   -3.4022880729792391E+01
B    7.9918364808996163E+00    2.0163068048961627E+01   -3.3961304271209180E+01
B    1.0123759459946529E+01    8.9166821363561635E+00   -3.3693046233594984E+01
B    1.2279980552634624E+01    1.0078625937894348E+01   -3.3908241815377430E+01
B    1.0118072748705613E+01    1.1370686278654745E+01   -3.3782034127248188E+01
B    1.2205493585970649E+01    1.2663161839725902E+01   -3.3861790340309668E+01
B    1.0071804101512583E+01    1.3909828650779314E+01   -3.3883117106066308E+01
B    1.2236897306465654E+01    1.5148701879010424E+01   -3.3688439660536126E+01
B    1.0057626278213201E+01    1.6399504486412482E+01   -3.3710178857202621E+01
B    1.2199262492314874E+01    1.7668860663573696E+01   -3.3757428022169478E+01
B    1.0135811931162184E+01    1.8940892438268278E+01   -3.3876644008643069E+01
B    1.2316491453319152E+01    2.0178389608235506E+01   -3.3912659506375249E+01
N    2.8722993115895274E+00    8.9145695726570242E+00   -3.3673664515652952E+01
N    5.1008204176973315E+00    1.0141038399484270E+01   -3.3755285454359580E+01
N    2.8328954346717765E+00    1.1366429330228717E+01   -3.3915392393673912E+01
N    4.9858148446635981E+00    1.2644859447360439E+01   -3.3791550135702664E+01
N    2.8360305384312485E+00    1.3874433878204961E+01   -3.3817580204054302E+01
N    5.0148050030118005E+00    1.5189213080688827E+01   -3.3782289926681692E+01
N    2.8183469724098793E+00    1.6415994983957813E+01   -3.4130044905393724E+01
N    5.0377967048317993E+00    1.7700429596525357E+01   -3.4092150382355285E+01
N    2.9021294298380367E+00    1.8953439848532796E+01   -3.4139335341202660E+01
N    5.0915498196865974E+00    2.0218764678245517E+01   -3.3951943367006251E+01
N    7.2551063929740547E+00    8.8267785667629877E+00   -3.3655375695855604E+01
N    9.3914006230021787E+00    1.0128413469949427E+01   -3.3712148053036465E+01
N    7.2370662373996213E+00    1.1367104955703745E+01   -3.3757342141272318E+01
N    9.3885695336380799E+00    1.2611743540895629E+01   -3.3962134810594051E+01
N    7.1617361062771803E+00    1.3910695254278624E+01   -3.3843316634646250E+01
N    9.3421907435048048E+00    1.5157606864505556E+01   -3.3854872036177952E+01
N    7.2118017848294436E+00    1.6487229813851304E+01   -3.3844165101997753E+01
N    9.3803828803120677E+00    1.7696035520256199E+01   -3.3850889608139653E+01
N    7.2341685769172210E+00    1.8963127083126363E+01   -3.3891418626857714E+01
N    9.4271376800010938E+00    2.0142838629637311E+01   -3.4006448119999824E+01
N    1.1580622949633474E+01    8.8520289561217318E+00   -3.3767248467395838E+01
N    1.3702561912759615E+01    1.0138431146958935E+01   -3.4008736227626635E+01
N    1.1544487309784522E+01    1.1398098806661679E+01   -3.3809818257500211E+01
N    1.3658677576562450E+01    1.2645949764298088E+01   -3.3860022995036012E+01
N    1.1528874313597440E+01    1.3946076319354505E+01   -3.3819665440829965E+01
N    1.3657315697480275E+01    1.5167800054244340E+01   -3.3706312678803940E+01
N    1.1502063010907865E+01    1.6369710821548324E+01   -3.3639422797926748E+01
N    1.3670257326193793E+01    1.7729666665988940E+01   -3.3672659838415754E+01
N    1.1590169793031480E+01    1.8933116455946546E+01   -3.3932901528493886E+01
N    1.3731490752344682E+01    2.0218044579921536E+01   -3.3969662572085205E+01
B    1.4547757397041148E+00    2.1506780421625010E+01   -3.3850605547946031E+01
B    3.5600537118763400E+00    2.2722185975876609E+01   -3.3834845148167545E+01
B    1.4390743245964042E+00    2.4008929504071837E+01   -3.3518762630013242E+01
B    3.6519716286053159E+00    2.5248234600420119E+01   -3.3584756615080423E+01
B    1.4892755004975160E+00    2.6501053743816321E+01   -3.3380250392813011E+01
B    3.5920431703732212E+00    2.7737772400133721E+01   -3.3578013396021952E+01
B    1.4540053289335013E+00    2.8980641251830008E+01   -3.3356017718503857E+01
B    3.5744610453186740E+00    3.0254849046651870E+01   -3.3575818687874886E+01
B    1.3879604125542784E+00    3.1515844014613837E+01   -3.3657651856970318E+01
B    3.5864119127538361E+00    3.2765829987918387E+01   -3.3619924408709210E+01
B    5.8004520008327578E+00    2.1489892259684769E+01   -3.3875359977778977E+01
B    8.0065438965613431E+00    2.2664204713486352E+01   -3.3925614478869861E+01
B    5.7817502207095615E+00    2.3947519113901219E+01   -3.3837016615724806E+01
B    7.9070355161287438E+00    2.5176786995144081E+01   -3.3892899919516800E+01
B    5.6988777990264143E+00    2.6475927650006042E+01   -3.3853180017591569E+01
B    7.8936618739466864E+00    2.7739509479481104E+01   -3.3955028268321229E+01
B    5.7742080598083083E+00    2.9021777281206315E+01   -3.3693552875276282E+01
B    7.9160256635766331E+00    3.0240723623005234E+01   -3.3689474192069667E+01
B    5.7398096296297760E+00    3.1452442408626364E+01   -3.3598101078867337E+01
B    7.9271279869715059E+00    3.2663641750840512E+01   -3.3641736040579652E+01
B    1.0114520610503925E+01    2.1406896885933723E+01   -3.3953201512340719E+01
B    1.2278026546098552E+01    2.2661936455727083E+01   -3.3934754640583726E+01
B    1.0110283214380903E+01    2.3883602775557197E+01   -3.3942844018454792E+01
B    1.2251692881773954E+01    2.5185845810389328E+01   -3.3718803032671254E+01
B    1.0077110115245056E+01    2.6417934212460114E+01   -3.3837750144503531E+01
B    1.2295764604703225E+01    2.7768100118342581E+01   -3.3587612599022016E+01
B    1.0108763381687510E+01    2.8965900421153695E+01   -3.3680304702719205E+01
B    1.2330232833421412E+01    3.0216308971941977E+01   -3.3718909683411283E+01
B    1.0165449510129310E+01    3.1487505238476157E+01   -3.3689110876238693E+01
B    1.2307952487254026E+01    3.2735405673294721E+01   -3.3815461814715874E+01
N    2.8754265457974344E+00    2.1452756610218874E+01   -3.4040756937417228E+01
N    5.0073959689656347E+00    2.2720997520816592E+01   -3.3908807484691565E+01
N    2.9008697627796920E+00    2.3996107439568032E+01   -3.3545072552052474E+01
N    5.0766911134719299E+00    2.5188855948307680E+01   -3.3714411652192076E+01
N    2.9282578103425738E+00    2.6463712565075610E+01   -3.3521276323674137E+01
N    5.0057911199014962E+00    2.7728362210167337E+01   -3.3769966608308032E+01
N    2.8812000111600859E+00    2.9011678888271408E+01   -3.3441602020980760E+01
N    5.0200468292405418E+00    3.0230716507113861E+01   -3.3664647924861363E+01
N    2.8383393602299751E+00    3.1525852817465964E+01   -3.3728573547667061E+01
N    5.0759520804270002E+00    3.2702275602731085E+01   -3.3476331338066103E+01
N    7.2545928126840113E+00    2.1490157404725153E+01   -3.3964629116784160E+01
N    9.4223651591622861E+00    2.2631414292133446E+01   -3.3958852878897360E+01
N    7.2205910544247480E+00    2.3915438759016187E+01   -3.3886419831703151E+01
N    9.3842203318586161E+00    2.5119957356054616E+01   -3.3903701558096778E+01
N    7.1828161159148518E+00    2.6497065094192173E+01   -3.3926956096906352E+01
N    9.3506035564449288E+00    2.7692486678926919E+01   -3.3861299823405297E+01
N    7.2038081920927421E+00    2.9026214950926523E+01   -3.3766980113030066E+01
N    9.3816554215043713E+00    3.0287008710654167E+01   -3.3619935868755555E+01
N    7.1699563957119929E+00    3.1436345338412828E+01   -3.3580345269798777E+01
N    9.4062294988145752E+00    3.2738031782685560E+01   -3.3630605917397226E+01
N    1.1601756426834232E+01    2.1414904896055678E+01   -3.3940842834166951E+01
N    1.3726659310295052E+01    2.2697169843423374E+01   -3.4041417277548049E+01
N    1.1577578542242877E+01    2.3937401927078596E+01   -3.3844569319229770E+01
N    1.3708274763922452E+01    2.5168721566819116E+01   -3.3669829713328049E+01
N    1.1558262499054297E+01    2.6450664633401541E+01   -3.3694436802769900E+01
N    1.3708862611729874E+01    2.7701718479091294E+01   -3.3490971413667857E+01
N    1.1532321050795463E+01    2.8986641928143115E+01   -3.3662245967575643E+01
N    1.3755094541123508E+01    3.0195941761028710E+01   -3.3765771537935088E+01
N    1.1600449742368248E+01    3.1458664925385467E+01   -3.3789831569227026E+01
N    1.3742409426444191E+01    3.2692377241467810E+01   -3.4085000893135117E+01
O    2.1005014714356452E+01   -3.0373796578583683E+00   -2.3666912059164389E+01
H    2.0042994270806535E+01   -3.3378729904680120E+00   -2.3706026315775265E+01
H    2.1015271181464769E+01   -2.6094851929066958E+00   -2.4545307697858728E+01
O   -7.3415554162285261E+01   -9.3665203767839557E+01   -2.7621326412210337E+01
H   -7.2488612396203436E+01   -9.3937442465536350E+01   -2.7573265725499578E+01
H   -7.3901034977950559E+01   -9.4031349167786900E+01   -2.6826007265173782E+01
O   -5.9402773776507146E+01   -1.7112021691350099E+00   -1.7521111132327160E+01
H   -5.8898775834327161E+01   -2.5408077688445849E+00   -1.7727217735910823E+01
H   -6.0286224213086136E+01   -2.0022761099693351E+00   -1.7125430575098708E+01
O   -3.6079317673686781E+01   -5.6770831140523683E+01   -2.7835159411263476E+01
H   -3.6210798284900179E+01   -5.7690911792519394E+01   -2.7453707609807431E+01
H   -3.6944045347278319E+01   -5.6311963550042904E+01   -2.7809571357616036E+01
O    2.5815742421992269E+01   -1.3590409344532915E+01   -2.7527006177295288E+01
H    2.6331242162741908E+01   -1.2798117525574586E+01   -2.7155555400728801E+01
H    2.5329270694530400E+01   -1.3829294804701508E+01   -2.6740231581583370E+01
O   -5.9831648301915166E+01   -7.9201222735078233E+01   -2.4077484297916456E+01
H   -6.0178019666944884E+01   -7.9844171798833131E+01   -2.4777478112473737E+01
H   -6.0607853005286081E+01   -7.8977449526807618E+01   -2.3519023545232823E+01
O   -8.4407020965755166E+01   -1.7791646656781413E+01   -2.1940168255775980E+01
H   -8.4285189395824204E+01   -1.7072088213669986E+01   -2.1234036148137591E+01
H   -8.5030473053457442E+01   -1.8462655081292599E+01   -2.1525586698184078E+01
O   -2.3652920450027544E+01   -6.2564757517013703E+01   -2.9223606634123861E+01
H   -2.4350744846905329E+01   -6.3026000280142128E+01   -2.9775028773936985E+01
H   -2.2832446002627538E+01   -6.3170279052237397E+01   -2.9305978856329926E+01
O   -5.5331951229522595E+01   -3.4560319721730970E+01   -2.1908352734471229E+01
H   -5.5117542394451689E+01   -3.3890216919203255E+01   -2.2556290032224876E+01
H   -5.4419619720805507E+01   -3.4947226868846364E+01   -2.1712980907526347E+01
O   -5.4782283057579185E+01   -6.1206631240588836E+00   -3.0371162938292585E+01
H   -5.5703511665637407E+01   -6.0901965934397744E+00   -2.9867075210593551E+01
H   -5.4422230697541806E+01   -6.9642215857700371E+00   -3.0087773598070168E+01
O   -6.4007657187211223E+01   -8.7992146393535052E+01   -2.1789573729658706E+01
H   -6.3606244771213142E+01   -8.7992457685564688E+01   -2.2686846472673331E+01
H   -6.4013358679038276E+01   -8.8964925500427995E+01   -2.1491624847159052E+01
O   -1.6693601132193109E+01   -3.1720561294253169E+01   -2.5159445171469873E+01
H   -1.6571364346847879E+01   -3.2475595106255405E+01   -2.5799815728223237E+01
H   -1.7654084549497426E+01   -3.1386030575256594E+01   -2.5352824682216159E+01
O   -2.3108894812291800E+00   -8.1534858076128032E+01   -2.1163849902429504E+01
H   -1.7380529627042716E+00   -8.1710952837946039E+01   -2.0433557836138661E+01
H   -1.7669300871600564E+00   -8.1333115229745019E+01   -2.1927878639150560E+01
O   -3.1093889933130921E+01   -2.3730820218503574E+01   -2.5362432877903462E+01
H   -3.1637319907141951E+01   -2.3807563396639193E+01   -2.4524039972696610E+01
H   -3.1129738830143797E+01   -2.2802584966702543E+01   -2.5507550996490767E+01
O   -6.7771548461791852E+01   -7.6923996432702950E+01   -1.9871809469345283E+01
H   -6.8388313062805125E+01   -7.7707309144946095E+01   -1.9778237190931371E+01
H   -6.7104131869736776E+01   -7.7215457462924704E+01   -2.0511629278496311E+01
O   -5.5297357868484887E+01   -2.8997960039605353E+01   -2.7863015341606037E+01
H   -5.5255106622081541E+01   -2.9991559612091724E+01   -2.8031863444522486E+01
H   -5.4693619574816886E+01   -2.8730178655996784E+01   -2.8573014552776353E+01
O   -4.8342156861700978E+01   -2.7757889552843885E+01   -3.1003947147633536E+01
H   -4.9164330207714215E+01   -2.7200394508261979E+01   -3.0894696641825931E+01
H   -4.8084150205125873E+01   -2.7942681608725685E+01   -3.0043027820572355E+01
O   -3.9693005071073202E+01    1.4239441154817900E+01   -2.1626407953103048E+01
H   -3.9103417576889804E+01    1.3449948508810062E+01   -2.1714397979706732E+01
H   -3.9066497261836560E+01    1.4800582050543214E+01   -2.1116799061682045E+01
O    3.0620232970921865E+01   -8.8458990018795149E+01   -2.5777386332858171E+01