 # Version information for this restart file 
 # current date 2019-01-28 11:15:24.019
 # current working dir /scratch/snx3000/gtocci/gtocci/MEMBRANES/AIMD_US_IONS_GRA/potassium/aimd_us_pot/us_23
 # Program compiled at                             Thu Oct 11 21:49:41 CEST 2018
 # Program compiled on                                                  daint104
 # Program compiled for                                   CRAY_XC50-gfortran_gpu
 # Source code revision number                                     git:be74c20a5
 &GLOBAL
   PRINT_LEVEL  LOW
   PROJECT_NAME GRAS
   RUN_TYPE  MD
   WALLTIME 10200
 &END GLOBAL
 &MOTION
   &MD
     ENSEMBLE  NVT
     STEPS  100000
     TIMESTEP     9.9999999999999989E-01
     STEP_START_VAL  41123
     TIME_START_VAL     4.1122999999990177E+04
     ECONS_START_VAL    -8.3204798985724774E+03
     TEMPERATURE     3.0000000000000000E+02
     TEMP_KIND  T
     &BAROSTAT
       PRESSURE     1.0000000000000000E+00
       TIMECON     9.9999999999999986E+01
       VIRIAL  Z
     &END BAROSTAT
     &THERMOSTAT
       TYPE  NOSE
       REGION  GLOBAL
       &NOSE
         LENGTH  4
         TIMECON     9.9999999999999986E+01
         MTS  2
         &COORD
               2.0281311035973693E-01    4.2145025583492547E+01    5.9362883255524534E-01   -2.6633322653128108E+01
         &END COORD
         &VELOCITY
               3.3536061728379764E-06   -8.6040091676021249E-05    3.7973178545581705E-04   -3.8393303201986390E-04
         &END VELOCITY
         &MASS
               7.0145132684705392E+07    1.6237299232570693E+04    1.6237299232570693E+04    1.6237299232570693E+04
         &END MASS
         &FORCE
              -9.1501568391654872E-10   -9.9243806041181193E-09   -5.1107116474486926E-08    8.5686215035357593E-08
         &END FORCE
       &END NOSE
     &END THERMOSTAT
     &AVERAGES  T
       &RESTART_AVERAGES
         ITIMES_START  1
         AVECPU     4.6588034398659431E+01
         AVEHUGONIOT     0.0000000000000000E+00
         AVETEMP_BARO     0.0000000000000000E+00
         AVEPOT    -8.3232997313308078E+03
         AVEKIN     2.0507461280144992E+00
         AVETEMP     2.9980260949634777E+02
         AVEKIN_QM     0.0000000000000000E+00
         AVETEMP_QM     0.0000000000000000E+00
         AVEVOL     2.1331414786628063E+05
         AVECELL_A     4.8437460238125347E+01
         AVECELL_B     4.6608961231944690E+01
         AVECELL_C     9.4486306644279566E+01
         AVEALPHA     9.0000000000000057E+01
         AVEBETA     9.0000000000000057E+01
         AVEGAMMA     9.0000000000000057E+01
         AVE_ECONS    -2.2012591893153668E+00
         AVE_PRESS     0.0000000000000000E+00
         AVE_PXX     0.0000000000000000E+00
       &END RESTART_AVERAGES
     &END AVERAGES
     &PRINT
       &TEMP_KIND  SILENT
       &END TEMP_KIND
     &END PRINT
   &END MD
   &FREE_ENERGY
     &METADYN
       MIN_DISP    -1.0000000000000000E+00
       OLD_HILL_NUMBER  0
       OLD_HILL_STEP  0
       DO_HILLS  F
       STEP_START_VAL  41123
       NHILLS_START_VAL  0
       &METAVAR
         SCALE     1.0000000000000000E+00
         COLVAR  1
       &END METAVAR
       &PRINT
         &COLVAR  SILENT
           COMMON_ITERATION_LEVELS  3
           &EACH
             MD  1
           &END EACH
         &END COLVAR
       &END PRINT
     &END METADYN
   &END FREE_ENERGY
   &CONSTRAINT
     &COLLECTIVE
       COLVAR  1
       INTERMOLECULAR  T
       &RESTRAINT
         K     4.4625385281452931E-04
       &END RESTRAINT
     &END COLLECTIVE
     &COLVAR_RESTART
           2.1731850528184900E+01
     &END COLVAR_RESTART
   &END CONSTRAINT
   &PRINT
     &TRAJECTORY  SILENT
       &EACH
         MD  1
       &END EACH
     &END TRAJECTORY
     &VELOCITIES  SILENT
       &EACH
         MD  1
       &END EACH
     &END VELOCITIES
     &FORCES  SILENT
       UNIT eV*angstrom^-1
       &EACH
         MD  1
       &END EACH
     &END FORCES
     &RESTART  SILENT
       &EACH
         MD  1
       &END EACH
     &END RESTART
     &RESTART_HISTORY  SILENT
       &EACH
         MD  100
       &END EACH
     &END RESTART_HISTORY
   &END PRINT
 &END MOTION
 &FORCE_EVAL
   METHOD  QS
   &DFT
     BASIS_SET_FILE_NAME /users/gtocci/scratch_daint_3000/data_cp2k//BASIS_MOLOPT
     POTENTIAL_FILE_NAME /users/gtocci/scratch_daint_3000/data_cp2k//GTH_POTENTIALS
     WFN_RESTART_FILE_NAME ./GRAS-RESTART.wfn
     CHARGE  1
     &SCF
       MAX_SCF  10
       EPS_SCF     9.9999999999999995E-07
       SCF_GUESS  RESTART
       &OT  T
         MINIMIZER  DIIS
         PRECONDITIONER  FULL_KINETIC
       &END OT
       &OUTER_SCF  T
         EPS_SCF     9.9999999999999995E-07
         MAX_SCF  30
       &END OUTER_SCF
       &PRINT
         &RESTART  SILENT
           ADD_LAST  NUMERIC
           &EACH
             QS_SCF  50
           &END EACH
         &END RESTART
       &END PRINT
     &END SCF
     &QS
       MAP_CONSISTENT  T
       EXTRAPOLATION  ASPC
       EXTRAPOLATION_ORDER  4
     &END QS
     &MGRID
       NGRIDS  5
       CUTOFF     4.6000000000000000E+02
     &END MGRID
     &XC
       DENSITY_CUTOFF     1.0000000000000000E-10
       GRADIENT_CUTOFF     1.0000000000000000E-10
       TAU_CUTOFF     1.0000000000000000E-10
       &XC_GRID
         XC_DERIV  SPLINE2_SMOOTH
       &END XC_GRID
       &XC_FUNCTIONAL  NO_SHORTCUT
         &LIBXC  T
           FUNCTIONAL XC_GGA_X_OPTB88_VDW
         &END LIBXC
         &VWN  T
         &END VWN
       &END XC_FUNCTIONAL
       &VDW_POTENTIAL
         POTENTIAL_TYPE  NON_LOCAL
         &NON_LOCAL
           TYPE  DRSLL
           VERBOSE_OUTPUT  T
           KERNEL_FILE_NAME /users/gtocci/scratch_daint_3000/data_cp2k//vdW_kernel_table.dat
         &END NON_LOCAL
       &END VDW_POTENTIAL
     &END XC
     &REAL_TIME_PROPAGATION
       INITIAL_WFN  SCF_WFN
     &END REAL_TIME_PROPAGATION
     &PRINT
       &MULLIKEN  SILENT
         FILENAME =GRAS.mulliken
       &END MULLIKEN
     &END PRINT
   &END DFT
   &SUBSYS
     &CELL
       A     2.5632000000000001E+01    0.0000000000000000E+00    0.0000000000000000E+00
       B     0.0000000000000000E+00    2.4664400000000022E+01    0.0000000000000000E+00
       C     0.0000000000000000E+00    0.0000000000000000E+00    5.0000000000000028E+01
       MULTIPLE_UNIT_CELL  1 1 1
     &END CELL
     &COORD
C    6.9438063658937095E+00    9.9895979913749091E+00    8.1840989858089286E-01
C    8.3618716779055440E+00    1.0012305991315802E+01    8.1664062886654487E-01
C    9.0265073554731075E+00    1.1251267949227055E+01    9.0938265941458241E-01
C    1.0466787017412008E+01    1.1249700084219189E+01    8.5088570244092587E-01
C    6.9449751369097834E+00    1.2508584322242946E+01    1.0687490718619919E+00
C    8.3608753255155488E+00    1.2504230686980041E+01    9.6103440580855248E-01
C    9.0815925831001625E+00    1.3706720826763902E+01    9.2621651919639747E-01
C    1.0500800791723799E+01    1.3717746217250347E+01    8.2644609165099558E-01
C    7.0011688300979564E+00    1.4933041667429586E+01    1.0492564223120020E+00
C    8.4141824180458347E+00    1.4938624283194850E+01    9.1944586650627291E-01
C    9.1034133634990884E+00    1.6201871074455436E+01    8.7248415523791267E-01
C    1.0517245937718119E+01    1.6207651343615161E+01    8.5365298262079325E-01
C    6.9425271885518836E+00    1.7406679092089249E+01    9.0292660802504210E-01
C    8.3960329686075461E+00    1.7408464673201099E+01    8.1566975264861408E-01
C    9.0993956902299669E+00    1.8661165265476900E+01    8.6139186331114370E-01
C    1.0521297535078885E+01    1.8650937958491717E+01    8.4405359199985919E-01
C    6.9418067326227861E+00    1.9854327213724400E+01    8.2249902101885741E-01
C    8.3427310329562907E+00    1.9877413658237952E+01    7.7834209405938926E-01
C    9.0621455437109226E+00    8.7976992107902579E+00    7.5577013053273945E-01
C    1.0490862459398565E+01    8.7608727228941490E+00    7.7766714417497085E-01
C    1.1153175304338012E+01    1.0022594760167665E+01    7.8794585535856976E-01
C    1.2605108079302164E+01    1.0039878666571655E+01    8.0364957944728477E-01
C    1.3340934962684548E+01    1.1242893762430420E+01    8.2606919681833746E-01
C    1.4752500130807057E+01    1.1245090913113085E+01    8.2655002369104524E-01
C    1.1202548180729391E+01    1.2493623829580780E+01    8.7468836889322987E-01
C    1.2637972522353937E+01    1.2486496567834294E+01    8.2560488265444787E-01
C    1.3340669564342363E+01    1.3702573091329818E+01    7.2489380732913478E-01
C    1.4767719429974568E+01    1.3731615790219488E+01    8.3837968693049025E-01
C    1.1232165565182374E+01    1.4973484131521525E+01    7.5009129655505102E-01
C    1.2649510080934304E+01    1.4967869229993644E+01    6.5464263383028087E-01
C    1.3399559745239769E+01    1.6173693726328136E+01    6.8927096302322843E-01
C    1.4798189053492187E+01    1.6163808250437111E+01    6.6070429687731391E-01
C    1.1242697247319848E+01    1.7404954831343776E+01    8.4257783188995850E-01
C    1.2684668284432300E+01    1.7436798856607890E+01    7.8717882112240545E-01
C    1.3396703705904816E+01    1.8659770077047668E+01    7.4859462466015414E-01
C    1.4794667375032219E+01    1.8639337758975731E+01    6.9483419916908395E-01
C    1.1269284996219172E+01    1.9863568579214142E+01    7.8681021679620733E-01
C    1.2699336620845049E+01    1.9886717713912919E+01    7.9577812280366222E-01
C    1.3320535983355764E+01    8.8192594976929382E+00    7.8362713897049396E-01
C    1.4732420335518976E+01    8.7793455611134767E+00    8.3710526099497384E-01
C    1.5469020423174388E+01    1.0001437571338771E+01    8.3186168818606321E-01
C    1.6863059898235043E+01    9.9861514134094893E+00    8.6510094699423534E-01
C    1.7623231383883383E+01    1.1218168349034482E+01    8.4508307095980795E-01
C    1.9059542716466208E+01    1.1249574680183263E+01    7.1219068639906524E-01
C    1.5483485626038009E+01    1.2485263124870611E+01    9.0454407504676693E-01
C    1.6889439921118285E+01    1.2459547275421112E+01    8.5134756585016702E-01
C    1.7649084553729875E+01    1.3653187590335765E+01    8.2626851514713950E-01
C    1.9082135168150050E+01    1.3701861964167854E+01    7.8547710998276099E-01
C    1.5514302514052172E+01    1.4942248700467259E+01    7.5281347872682836E-01
C    1.6940169028543195E+01    1.4899979262721168E+01    7.4029644374738535E-01
C    1.7641267010067065E+01    1.6192425658805739E+01    7.2839476021994665E-01
C    1.9075540766353384E+01    1.6239367945650496E+01    7.3911278426715477E-01
C    1.5513271534796784E+01    1.7390616706893624E+01    6.3963816458448530E-01
C    1.6922170003718573E+01    1.7429162852241511E+01    7.3780329185490823E-01
C    1.7633898324864191E+01    1.8675443323203901E+01    6.7800241134904293E-01
C    1.9036321576291861E+01    1.8687358317283167E+01    6.7158012515404297E-01
C    1.5512823086515469E+01    1.9902164793067310E+01    7.3120795533951122E-01
C    1.6937958666546212E+01    1.9930591819490125E+01    6.7783275455876468E-01
C    1.7595959570870100E+01    8.7489189739306870E+00    8.4735476331192006E-01
C    1.9026986920194339E+01    8.7779945435350015E+00    7.0893065661380017E-01
C    6.9879932189291853E+00    2.2286867216488186E+01    7.1788010137988190E-01
C    8.4322514952699574E+00    2.2338378455643653E+01    6.6364843301303822E-01
C    9.0961702438566263E+00    2.3587411190549542E+01    7.5506292444051903E-01
C    1.0543395674693912E+01    2.3596976702829213E+01    8.6699769839981478E-01
C    6.9522273759241777E+00    2.4805733487290684E+01    7.9803683241603274E-01
C    8.3588102648357268E+00    2.4816842901088442E+01    7.8801350177577278E-01
C    9.0927879345581601E+00    2.6063661054483465E+01    8.3768349698584998E-01
C    1.0512605804077408E+01    2.6060897760750464E+01    8.9668747346806499E-01
C    6.9445384027254740E+00    2.7333123114368050E+01    9.4914613591165553E-01
C    8.3693956654679020E+00    2.7319153961976937E+01    9.2700220476742345E-01
C    9.1274101981429201E+00    2.8496842039959688E+01    9.7969818793058128E-01
C    1.0552973269183024E+01    2.8534439631621208E+01    1.0438910945466013E+00
C    6.9538777566965324E+00    2.9800572577064965E+01    8.0968343661369591E-01
C    8.3709988317617672E+00    2.9769609591144349E+01    9.0529647304075744E-01
C    9.0509287712005158E+00    3.1049461338946404E+01    8.7416564620273662E-01
C    1.0470017698857745E+01    3.1021070907991845E+01    8.6344899221710170E-01
C    6.9320726839904765E+00    3.2213028608543993E+01    6.8154343636271408E-01
C    8.3245451035648870E+00    3.2248746186092021E+01    7.6349140208007038E-01
C    9.1048355017385934E+00    2.1100245167985619E+01    7.3054700066499112E-01
C    1.0551894555881441E+01    2.1083256688913323E+01    7.7745981449728574E-01
C    1.1229686506679244E+01    2.2325282928500982E+01    8.2809128387986841E-01
C    1.2648161079985165E+01    2.2332617265022197E+01    7.8885770018631840E-01
C    1.3344662414797906E+01    2.3581334320048466E+01    7.3629411715986581E-01
C    1.4823575383961320E+01    2.3606717793209675E+01    7.3990373205639071E-01
C    1.1244250615324352E+01    2.4846634006743933E+01    8.5416424759305154E-01
C    1.2645697301195868E+01    2.4839438348742636E+01    8.0382768712304520E-01
C    1.3365724528728210E+01    2.6074924909639250E+01    8.1639432998251171E-01
C    1.4803341873333649E+01    2.6117847947877159E+01    8.4045030623780248E-01
C    1.1220133899274815E+01    2.7284581905158138E+01    1.0264169192726234E+00
C    1.2657169491339719E+01    2.7274244684498647E+01    9.6180024190251845E-01
C    1.3350508210728188E+01    2.8570576248480787E+01    9.6107692284168889E-01
C    1.4781988730564088E+01    2.8556467152264165E+01    8.7212587248226670E-01
C    1.1212410166893441E+01    2.9756071241288733E+01    9.6092660650480610E-01
C    1.2635648938423156E+01    2.9799298488567217E+01    8.6967664387866273E-01
C    1.3352494248640753E+01    3.1017866765753105E+01    8.0139857275972970E-01
C    1.4776238991827384E+01    3.1012613794181920E+01    7.5356318078032702E-01
C    1.1221187654285554E+01    3.2185737235123746E+01    7.3825911840850567E-01
C    1.2648834045641625E+01    3.2209610024732022E+01    8.0911627379335971E-01
C    1.3381496592071064E+01    2.1126727762510615E+01    8.4499794732000055E-01
C    1.4811817709690562E+01    2.1165187691007617E+01    7.9228098602634467E-01
C    1.5526963639298145E+01    2.2364675804671908E+01    7.5774768463713438E-01
C    1.6985281750364344E+01    2.2385682462687154E+01    7.9958612893203584E-01
C    1.7666096905966267E+01    2.3677142773267263E+01    9.5695740289341957E-01
C    1.9059329295949947E+01    2.3629475579953056E+01    1.0527237113720085E+00
C    1.5491985016912901E+01    2.4829710230553783E+01    8.9445301669696275E-01
C    1.6912154916544246E+01    2.4872036650852149E+01    1.0073807282440517E+00
C    1.7621293701310687E+01    2.6071529107988887E+01    1.1962613642999655E+00
C    1.9058340899022777E+01    2.6055675473784277E+01    1.2419556114353962E+00
C    1.5505487481910695E+01    2.7322025960380245E+01    9.2788780877137012E-01
C    1.6904774364105993E+01    2.7288022274146815E+01    1.0796168809605200E+00
C    1.7592258712324831E+01    2.8544127165425770E+01    1.0566340311812634E+00
C    1.9018414026459254E+01    2.8542512783010189E+01    1.0612351285675845E+00
C    1.5516648241801223E+01    2.9772048198338652E+01    7.9035661131534840E-01
C    1.6920838971652920E+01    2.9762812299222411E+01    8.2399749452615301E-01
C    1.7643380855828518E+01    3.0993325507258511E+01    8.4940163678084613E-01
C    1.9041847315236332E+01    3.0978031231416658E+01    8.8970466411994642E-01
C    1.5481883545506768E+01    3.2219346456245013E+01    8.0097081543361426E-01
C    1.6917954413660553E+01    3.2207904270210328E+01    8.6244374563445525E-01
C    1.7636546797584753E+01    2.1155911088515190E+01    7.1368595253744449E-01
C    1.9052191049818077E+01    2.1166209575980055E+01    8.6263939790248201E-01
C    1.9755750296277263E+01    1.0027693936897649E+01    6.5505210378730949E-01
C    2.1185925153002955E+01    1.0078915516471858E+01    5.9903134547409109E-01
C    2.1912716039576434E+01    1.1266258466458549E+01    6.1018212851076825E-01
C    2.3344558124196190E+01    1.1254672885574815E+01    6.7376381203252467E-01
C    1.9805490419669120E+01    1.2483948901926880E+01    7.6811895238002237E-01
C    2.1224085419038712E+01    1.2525148610599459E+01    6.9728614593931515E-01
C    2.1921227128295847E+01    1.3755805336373562E+01    7.6396919371948679E-01
C    2.3361054114941467E+01    1.3769570474947958E+01    7.9356240556187296E-01
C    1.9770824649976621E+01    1.4964262440417507E+01    7.7256194385510069E-01
C    2.1188235519836297E+01    1.4973874736499313E+01    7.7224928262201586E-01
C    2.1892559688000699E+01    1.6221344683761657E+01    7.5770726042879966E-01
C    2.3319335697863288E+01    1.6249467143355002E+01    8.2482348942125461E-01
C    1.9767219925381635E+01    1.7468544253961312E+01    6.9552442621601529E-01
C    2.1195796985066885E+01    1.7488104485665612E+01    7.0699844598002903E-01
C    2.1908569975937379E+01    1.8730336228525381E+01    8.3901246131905949E-01
C    2.3325575101041778E+01    1.8677167525859055E+01    8.8954697307421604E-01
C    1.9765031238355377E+01    1.9938250726407166E+01    7.5361431034025883E-01
C    2.1208067495464970E+01    1.9969097898419545E+01    8.9013063250148694E-01
C    2.1905806936053999E+01    8.8331806129868955E+00    6.4826525271126512E-01
C    2.3346597688946066E+01    8.7864298765426643E+00    7.6306305620600379E-01
C    2.4087731315130039E+01    1.0036300651486505E+01    7.5426396200980506E-01
C    2.5512577597888441E+01    1.0005981988712795E+01    8.1973517251370709E-01
C    2.6146147662407461E+01    1.1264658553480540E+01    8.2711322875722337E-01
C    2.7573557645267510E+01    1.1280709406823179E+01    8.1029127804560908E-01
C    2.4034517341858706E+01    1.2492853318536921E+01    8.1536756800499610E-01
C    2.5469239199311549E+01    1.2509570593938619E+01    8.4290137079967864E-01
C    2.6148629450692528E+01    1.3750914851539459E+01    9.6583366315574315E-01
C    2.7587748835087712E+01    1.3748050576504214E+01    1.0283728785036175E+00
C    2.4037145675718790E+01    1.5028651114488659E+01    8.2997019956591733E-01
C    2.5442558114971025E+01    1.5000192426389958E+01    9.0311858117639698E-01
C    2.6192633348543442E+01    1.6212248982793312E+01    9.8007934701713650E-01
C    2.7628453626136043E+01    1.6218342641102332E+01    9.7465964864961274E-01
C    2.4033474565516670E+01    1.7487381761973566E+01    9.0662265491809491E-01
C    2.5466289861925937E+01    1.7474248837450098E+01    1.0135829472258697E+00
C    2.6204059333162128E+01    1.8685643403057203E+01    1.0058115550656903E+00
C    2.7639122090305552E+01    1.8674125492326510E+01    1.0594900652791881E+00
C    2.4038227558205094E+01    1.9910385013905795E+01    9.2906425266609283E-01
C    2.5473607677549190E+01    1.9918268273858434E+01    9.3769851070919075E-01
C    2.6230178045660171E+01    8.7624184963321810E+00    8.2589197832429551E-01
C    2.7615135747490033E+01    8.7524983087263255E+00    7.1079967490249818E-01
C    2.8299082764646560E+01    1.0010153306433317E+01    7.0655488431452451E-01
C    2.9742346897339630E+01    9.9926842995012137E+00    7.7032384083255545E-01
C    3.0423323540803327E+01    1.1245822743532207E+01    8.6887605835947723E-01
C    3.1860826680484553E+01    1.1211497111658666E+01    9.0075203292298978E-01
C    2.8255598540957937E+01    1.2498327550948355E+01    9.0773148050040220E-01
C    2.9709531141732544E+01    1.2484713743445507E+01    8.9598016112530421E-01
C    3.0427530651169711E+01    1.3715651317697072E+01    9.3248331183023647E-01
C    3.1885703269749285E+01    1.3718095121066270E+01    1.0204375731627486E+00
C    2.8287692549863991E+01    1.4990065336505609E+01    1.0661989984037814E+00
C    2.9711175854898197E+01    1.4953315982748189E+01    9.3167483545167051E-01
C    3.0458713323325096E+01    1.6176372782734799E+01    9.1567740223061389E-01
C    3.1900981490873797E+01    1.6155017900163955E+01    9.6606041089471395E-01
C    2.8349684552191523E+01    1.7447944891277185E+01    9.9010664433030493E-01
C    2.9770401401933068E+01    1.7429461601626532E+01    9.4072762652067965E-01
C    3.0453810967668268E+01    1.8662483722634043E+01    1.0066928456348336E+00
C    3.1870932407831983E+01    1.8637372372154775E+01    9.4733979547345903E-01
C    2.8319713302884168E+01    1.9909742286063199E+01    1.1242578789968019E+00
C    2.9745798396280268E+01    1.9908540545908263E+01    1.0281438543739234E+00
C    3.0469373816660323E+01    8.7675232646088013E+00    6.4943212356267077E-01
C    3.1853925175559791E+01    8.7958645961261723E+00    6.6003772168553521E-01
C    1.9777204671450388E+01    2.2397655504031032E+01    9.4453076380141410E-01
C    2.1192189085084777E+01    2.2392086529030983E+01    1.0308522359509362E+00
C    2.1945992301785878E+01    2.3597437863711725E+01    1.1120595428149911E+00
C    2.3360962981584908E+01    2.3579138003654460E+01    1.0001612317510180E+00
C    1.9773449619473798E+01    2.4846269930918545E+01    1.1736397029884398E+00
C    2.1231153383105458E+01    2.4845696011062447E+01    1.1958827453772374E+00
C    2.1908925765974434E+01    2.6094245531521970E+01    1.2341575648713043E+00
C    2.3340513499784677E+01    2.6042199032324877E+01    1.0800410771370124E+00
C    1.9778097600272275E+01    2.7307354206162849E+01    1.1623028430683888E+00
C    2.1177890125771533E+01    2.7303097184294113E+01    1.2048931169468446E+00
C    2.1892701017968680E+01    2.8525499832032221E+01    1.0940089920067431E+00
C    2.3307085142654596E+01    2.8515231655542799E+01    1.0114764003304275E+00
C    1.9747606344870192E+01    2.9780156392690927E+01    9.9561725427814785E-01
C    2.1179523898467540E+01    2.9795421222052539E+01    1.0065068564651991E+00
C    2.1879903096233182E+01    3.1051186188823841E+01    9.1401049464207929E-01
C    2.3321389943920508E+01    3.0992920607523494E+01    8.6395797390905371E-01
C    1.9752088309799927E+01    3.2225517625317714E+01    8.1953285801323672E-01
C    2.1197391265885400E+01    3.2285920940389971E+01    8.1385765579115188E-01
C    2.1902705653365334E+01    2.1174883164400082E+01    9.8213748046322191E-01
C    2.3341366738811669E+01    2.1123068559739231E+01    9.1373625678239057E-01
C    2.4053865647419371E+01    2.2335596202725370E+01    9.4979260215361128E-01
C    2.5469891031323769E+01    2.2371154681334691E+01    9.7276951061246852E-01
C    2.6191999391098523E+01    2.3567321114872364E+01    9.6178841619400113E-01
C    2.7605271493480611E+01    2.3562251274799770E+01    9.0308022346400463E-01
C    2.4045283424164321E+01    2.4808246715902445E+01    9.4089392333257038E-01
C    2.5466537249467269E+01    2.4789328203570108E+01    9.1782591810785530E-01
C    2.6183743772525442E+01    2.6028500069923950E+01    7.9406112518947436E-01
C    2.7616240781775044E+01    2.6051870630168732E+01    7.5191500549070933E-01
C    2.4040658345978759E+01    2.7293545343535495E+01    9.2541996011736805E-01
C    2.5491127680420565E+01    2.7260200007002766E+01    8.0375579460863933E-01
C    2.6221185180039324E+01    2.8474523802399901E+01    8.1258951120030498E-01
C    2.7643251558871235E+01    2.8514111493736984E+01    5.5411832740999090E-01
C    2.4067149709082944E+01    2.9758847732040586E+01    9.6823834555013799E-01
C    2.5513089665834482E+01    2.9715394031406255E+01    9.4431589004019656E-01
C    2.6206191105045260E+01    3.0982224610117036E+01    8.7571416909812105E-01
C    2.7608257561290177E+01    3.0972757711207489E+01    6.5577249487111677E-01
C    2.4004848461468306E+01    3.2245858902644592E+01    8.5749939261094865E-01
C    2.5454568597170088E+01    3.2222030742429205E+01    8.6529629646834227E-01
C    2.6198017615127558E+01    2.1121986627264707E+01    9.6602547226004687E-01
C    2.7616352735809439E+01    2.1125225718176541E+01    1.0200883188576007E+00
C    2.8317706217066405E+01    2.2332982238243034E+01    9.3592853677678756E-01
C    2.9726784550920669E+01    2.2353322276065803E+01    8.1893153980995836E-01
C    3.0469373458792937E+01    2.3556843727068511E+01    6.8655251511343152E-01
C    3.1889966853730964E+01    2.3527136183305789E+01    6.8662897687647684E-01
C    2.8334758243800138E+01    2.4831064804253732E+01    8.2605468331731968E-01
C    2.9774536649766567E+01    2.4802141359099839E+01    7.9321268364162056E-01
C    3.0464752156916013E+01    2.6057280467274026E+01    8.0831421570110462E-01
C    3.1891991114011685E+01    2.6082452111524450E+01    9.0080488044636553E-01
C    2.8349088160656745E+01    2.7241734637097395E+01    6.1911978009367741E-01
C    2.9756906729880171E+01    2.7313608011111700E+01    7.3567131768136573E-01
C    3.0459404030081515E+01    2.8538917240844015E+01    7.1147551402587639E-01
C    3.1914980101813075E+01    2.8540142141838579E+01    8.2034264876918273E-01
C    2.8356145665755669E+01    2.9736053819980498E+01    5.8852722255861833E-01
C    2.9767128085991786E+01    2.9748942557251656E+01    6.6881057318310344E-01
C    3.0447771169777479E+01    3.0983333529493922E+01    6.6210083093868433E-01
C    3.1840232179415036E+01    3.1013998271419155E+01    6.8988055415057170E-01
C    2.8319835326179696E+01    3.2209925588569583E+01    6.7531173203002515E-01
C    2.9734646590607955E+01    3.2212045981863412E+01    6.2019236935292843E-01
C    3.0440427520977774E+01    2.1133605555614960E+01    9.0062936081184164E-01
C    3.1872816993647334E+01    2.1071976594413432E+01    7.7894186600623971E-01
O    4.7844592984289784E+02    3.7853031338232057E+01    7.1649467676403757E+00
H    4.7797577012892935E+02    3.8500062952150238E+01    7.7589669422068290E+00
H    4.7849336367650699E+02    3.8373184517947195E+01    6.2719069383693364E+00
O    4.0660637740735910E+02    1.1017186950968794E+02    7.7224709310687532E+00
H    4.0603135028124677E+02    1.1046932758776559E+02    8.4573607497601397E+00
H    4.0615611175651424E+02    1.0935473071034357E+02    7.3954865538573848E+00
O    3.2004136020175395E+02    1.3228785888255376E+02    1.5563067578059584E+01
H    3.2063403699907536E+02    1.3193870998831477E+02    1.6319870503323234E+01
H    3.2069064694671164E+02    1.3247863023110139E+02    1.4778577345838476E+01
O    4.3633527605520828E+02   -3.1770874847203007E+01    9.7589845701360041E+00
H    4.3546065163507416E+02   -3.2089105364645064E+01    9.4324897654133295E+00
H    4.3699315961654014E+02   -3.1946165515076718E+01    9.0187607941650949E+00
O    4.2645522697246264E+02    4.4500485484819912E+01    7.8465944488685304E+00
H    4.2661706265766725E+02    4.4589941238668466E+01    8.8127433616130748E+00
H    4.2555504235409654E+02    4.4084089930987169E+01    7.7145083057771915E+00
O    3.2986133855506961E+02    4.0082944658493474E+01    1.8235202673148500E+01
H    3.2917291132651002E+02    3.9464748006096045E+01    1.8572754020515358E+01
H    3.3076723532550938E+02    3.9674065749961791E+01    1.8448972318765634E+01
O    4.4452824297464707E+02    9.8799703892958817E+01    1.1038627145760472E+01
H    4.4532679735515114E+02    9.9105986309343621E+01    1.0578635559866832E+01
H    4.4501306907409349E+02    9.8181718535407839E+01    1.1651697253156826E+01
O    3.5918803719357413E+02   -7.5329853450103727E+01    5.6763872889700036E+00
H    3.6006788944542893E+02   -7.5725510869371732E+01    5.5218467771710475E+00
H    3.5910372821455087E+02   -7.5203278001288510E+01    6.6945745093846725E+00
O    3.1055207711136643E+02    9.4759545234201653E+01    7.6218989595168720E+00
H    3.1113862964273790E+02    9.4392436862413376E+01    8.3238046850637399E+00
H    3.0967985019326102E+02    9.4708837164562851E+01    8.1208272681317801E+00
O    4.6375888351361954E+02    1.0515978854098992E+02    5.7038859642415574E+00
H    4.6453479586023360E+02    1.0480726242068812E+02    5.1907925682489537E+00
H    4.6319300165819340E+02    1.0565970943498805E+02    5.0330086040290407E+00
O    3.7017939856121819E+02    3.9961437156492167E+01    1.2002800339869220E+01
H    3.7085755860780017E+02    4.0341657492066105E+01    1.2583482482418598E+01
H    3.7062187628247540E+02    3.9135986631690173E+01    1.1610338976106206E+01
O    2.7798683592805628E+02    8.3443704102213403E+01    1.0218993192412860E+01
H    2.7880413619667337E+02    8.3345447137898105E+01    9.6533788392866064E+00
H    2.7775294326123822E+02    8.2544139868955384E+01    1.0463543030122084E+01
O    3.8409462877178970E+02    5.1204044556618726E+01    1.2012676913364789E+01
H    3.8482196377680015E+02    5.0590910453054946E+01    1.2322898075544730E+01
H    3.8358336445133091E+02    5.0643563655418468E+01    1.1382673559524742E+01
O    3.8257155871087292E+02    3.7174009740976864E+01    9.7714422902505262E+00
H    3.8237815594546203E+02    3.6437370237139390E+01    1.0443551107664959E+01
H    3.8242479018458789E+02    3.6684678307470286E+01    8.9298062521827788E+00
O    2.9275528275016666E+02    2.0209050080626017E+02    1.0904131167084959E+01
H    2.9197197990829306E+02    2.0214659407250991E+02    1.1470120687022639E+01
H    2.9291248005629740E+02    2.0108272065578890E+02    1.0686378004280183E+01
O    3.8063596579893374E+02    1.2642227024946637E+02    1.6001806442387416E+01
H    3.7989192019076813E+02    1.2575453236219690E+02    1.5992177734670593E+01
H    3.8137137791965284E+02    1.2625781984562074E+02    1.5331464802531750E+01
O    4.1645854973288260E+02    1.6283917289585597E+02    1.3286256318492406E+01
H    4.1637985800612671E+02    1.6372681393979025E+02    1.2810020871261202E+01
H    4.1736528584414094E+02    1.6262198194225763E+02    1.3341525081244162E+01
O    3.8268922106403869E+02    2.6111386626727409E+01    1.9383605549025422E+01
H    3.8365828524279556E+02    2.5955944831640686E+01    1.9483864327807066E+01
H    3.8250031114532425E+02    2.6980737685545190E+01    1.9084156319758506E+01
O    4.1083495012494927E+02    1.5795460976050288E+02    1.3298077632903528E+01
H    4.1159098435533156E+02    1.5838840549668797E+02    1.2930443932981316E+01