 # Version information for this restart file 
 # current date 2019-01-28 11:14:22.281
 # current working dir /scratch/snx3000/gtocci/gtocci/MEMBRANES/AIMD_US_IONS_GRA/potassium/aimd_us_pot/us_7
 # Program compiled at                             Thu Oct 11 21:49:41 CEST 2018
 # Program compiled on                                                  daint104
 # Program compiled for                                   CRAY_XC50-gfortran_gpu
 # Source code revision number                                     git:be74c20a5
 &GLOBAL
   PRINT_LEVEL  LOW
   PROJECT_NAME GRAS
   RUN_TYPE  MD
   WALLTIME 10200
 &END GLOBAL
 &MOTION
   &MD
     ENSEMBLE  NVT
     STEPS  100000
     TIMESTEP     9.9999999999999989E-01
     STEP_START_VAL  41252
     TIME_START_VAL     4.1251999999989945E+04
     ECONS_START_VAL    -8.3206828766193139E+03
     TEMPERATURE     3.0000000000000000E+02
     TEMP_KIND  T
     &BAROSTAT
       PRESSURE     1.0000000000000000E+00
       TIMECON     9.9999999999999986E+01
       VIRIAL  Z
     &END BAROSTAT
     &THERMOSTAT
       TYPE  NOSE
       REGION  GLOBAL
       &NOSE
         LENGTH  4
         TIMECON     9.9999999999999986E+01
         MTS  2
         &COORD
               1.3686336763334489E-01    2.7248780175705583E+01   -1.9551695054200646E+01   -7.9939710055779012E-01
         &END COORD
         &VELOCITY
               2.0957799126688781E-06    3.5120125042712358E-04   -3.3039210783145301E-04    2.5037968575909112E-04
         &END VELOCITY
         &MASS
               7.0145132684705392E+07    1.6237299232570693E+04    1.6237299232570693E+04    1.6237299232570693E+04
         &END MASS
         &FORCE
               4.0852814053231990E-10   -3.9535306179168751E-08    6.4832304451470108E-08    5.0648931067205394E-08
         &END FORCE
       &END NOSE
     &END THERMOSTAT
     &AVERAGES  T
       &RESTART_AVERAGES
         ITIMES_START  1
         AVECPU     4.6735203861482354E+01
         AVEHUGONIOT     0.0000000000000000E+00
         AVETEMP_BARO     0.0000000000000000E+00
         AVEPOT    -8.3232530472961662E+03
         AVEKIN     2.0509793216155345E+00
         AVETEMP     2.9983670052748647E+02
         AVEKIN_QM     0.0000000000000000E+00
         AVETEMP_QM     0.0000000000000000E+00
         AVEVOL     2.1331414786628060E+05
         AVECELL_A     4.8437460238125233E+01
         AVECELL_B     4.6608961231944761E+01
         AVECELL_C     9.4486306644279537E+01
         AVEALPHA     9.0000000000000057E+01
         AVEBETA     9.0000000000000057E+01
         AVEGAMMA     9.0000000000000057E+01
         AVE_ECONS    -2.1071663094712241E+00
         AVE_PRESS     0.0000000000000000E+00
         AVE_PXX     0.0000000000000000E+00
       &END RESTART_AVERAGES
     &END AVERAGES
     &PRINT
       &TEMP_KIND  SILENT
       &END TEMP_KIND
     &END PRINT
   &END MD
   &FREE_ENERGY
     &METADYN
       MIN_DISP    -1.0000000000000000E+00
       OLD_HILL_NUMBER  0
       OLD_HILL_STEP  0
       DO_HILLS  F
       STEP_START_VAL  41252
       NHILLS_START_VAL  0
       &METAVAR
         SCALE     1.0000000000000000E+00
         COLVAR  1
       &END METAVAR
       &PRINT
         &COLVAR  SILENT
           COMMON_ITERATION_LEVELS  3
           &EACH
             MD  1
           &END EACH
         &END COLVAR
       &END PRINT
     &END METADYN
   &END FREE_ENERGY
   &CONSTRAINT
     &COLLECTIVE
       COLVAR  1
       INTERMOLECULAR  T
       &RESTRAINT
         K     4.4625385281452931E-04
       &END RESTRAINT
     &END COLLECTIVE
     &COLVAR_RESTART
           6.6140414650997519E+00
     &END COLVAR_RESTART
   &END CONSTRAINT
   &PRINT
     &TRAJECTORY  SILENT
       &EACH
         MD  1
       &END EACH
     &END TRAJECTORY
     &VELOCITIES  SILENT
       &EACH
         MD  1
       &END EACH
     &END VELOCITIES
     &FORCES  SILENT
       UNIT eV*angstrom^-1
       &EACH
         MD  1
       &END EACH
     &END FORCES
     &RESTART  SILENT
       &EACH
         MD  1
       &END EACH
     &END RESTART
     &RESTART_HISTORY  SILENT
       &EACH
         MD  100
       &END EACH
     &END RESTART_HISTORY
   &END PRINT
 &END MOTION
 &FORCE_EVAL
   METHOD  QS
   &DFT
     BASIS_SET_FILE_NAME /users/gtocci/scratch_daint_3000/data_cp2k//BASIS_MOLOPT
     POTENTIAL_FILE_NAME /users/gtocci/scratch_daint_3000/data_cp2k//GTH_POTENTIALS
     WFN_RESTART_FILE_NAME ./GRAS-RESTART.wfn
     CHARGE  1
     &SCF
       MAX_SCF  10
       EPS_SCF     9.9999999999999995E-07
       SCF_GUESS  RESTART
       &OT  T
         MINIMIZER  DIIS
         PRECONDITIONER  FULL_KINETIC
       &END OT
       &OUTER_SCF  T
         EPS_SCF     9.9999999999999995E-07
         MAX_SCF  30
       &END OUTER_SCF
       &PRINT
         &RESTART  SILENT
           ADD_LAST  NUMERIC
           &EACH
             QS_SCF  50
           &END EACH
         &END RESTART
       &END PRINT
     &END SCF
     &QS
       MAP_CONSISTENT  T
       EXTRAPOLATION  ASPC
       EXTRAPOLATION_ORDER  4
     &END QS
     &MGRID
       NGRIDS  5
       CUTOFF     4.6000000000000000E+02
     &END MGRID
     &XC
       DENSITY_CUTOFF     1.0000000000000000E-10
       GRADIENT_CUTOFF     1.0000000000000000E-10
       TAU_CUTOFF     1.0000000000000000E-10
       &XC_GRID
         XC_DERIV  SPLINE2_SMOOTH
       &END XC_GRID
       &XC_FUNCTIONAL  NO_SHORTCUT
         &LIBXC  T
           FUNCTIONAL XC_GGA_X_OPTB88_VDW
         &END LIBXC
         &VWN  T
         &END VWN
       &END XC_FUNCTIONAL
       &VDW_POTENTIAL
         POTENTIAL_TYPE  NON_LOCAL
         &NON_LOCAL
           TYPE  DRSLL
           VERBOSE_OUTPUT  T
           KERNEL_FILE_NAME /users/gtocci/scratch_daint_3000/data_cp2k//vdW_kernel_table.dat
         &END NON_LOCAL
       &END VDW_POTENTIAL
     &END XC
     &REAL_TIME_PROPAGATION
       INITIAL_WFN  SCF_WFN
     &END REAL_TIME_PROPAGATION
     &PRINT
       &MULLIKEN  SILENT
         FILENAME =GRAS.mulliken
       &END MULLIKEN
     &END PRINT
   &END DFT
   &SUBSYS
     &CELL
       A     2.5632000000000001E+01    0.0000000000000000E+00    0.0000000000000000E+00
       B     0.0000000000000000E+00    2.4664400000000022E+01    0.0000000000000000E+00
       C     0.0000000000000000E+00    0.0000000000000000E+00    5.0000000000000028E+01
       MULTIPLE_UNIT_CELL  1 1 1
     &END CELL
     &COORD
C   -9.2536803367815321E-02    6.4154192363142073E+00    1.9478023352705054E+00
C    1.3244343068557007E+00    6.4088721788382452E+00    1.8502809692638571E+00
C    2.0814306829352809E+00    7.6357244684550176E+00    1.8880371155617153E+00
C    3.4900063769018264E+00    7.6928903446562105E+00    1.7968020418050636E+00
C   -2.1363854348371528E-02    8.8651101746208383E+00    1.9867104248611041E+00
C    1.3648357220017753E+00    8.8466130554715559E+00    1.9910594292263000E+00
C    2.0373972636527613E+00    1.0082789889243047E+01    1.9834809823782402E+00
C    3.4607644581017385E+00    1.0141840157698095E+01    1.9732593569912684E+00
C   -9.1230426470909717E-02    1.1307461688121304E+01    1.9429519034856733E+00
C    1.3350297034729861E+00    1.1360615210057235E+01    1.9123459713835012E+00
C    2.0756975931793753E+00    1.2591309240244039E+01    1.9040482251691477E+00
C    3.4925374988250497E+00    1.2586987431609804E+01    1.9060912994074324E+00
C   -7.7779705834833193E-02    1.3838932665999533E+01    1.9823435892599550E+00
C    1.3562771199842529E+00    1.3812241868798298E+01    1.9450127757435651E+00
C    2.0697046819729801E+00    1.5046807552640535E+01    1.9394126216642931E+00
C    3.5304278844930779E+00    1.5040096966712767E+01    1.9513174304722705E+00
C   -8.1887141436406310E-02    1.6260744771091083E+01    2.0006843314766476E+00
C    1.3635931296804542E+00    1.6265330546952693E+01    1.8886841453580820E+00
C    2.0582625274229414E+00    5.1827945751728590E+00    1.7678298094422051E+00
C    3.4717974439411887E+00    5.2043004337271030E+00    1.6864409166338121E+00
C    4.2087979522720751E+00    6.4118368715517615E+00    1.7655475048178262E+00
C    5.6366663392724172E+00    6.4293876559222802E+00    1.7305587240549867E+00
C    6.3275203739917156E+00    7.6826549914021012E+00    1.7698399848326340E+00
C    7.7375471295408893E+00    7.6888643270933139E+00    1.5865171099401076E+00
C    4.1673986711627791E+00    8.9117641543098518E+00    1.9459431120290847E+00
C    5.6176925145485601E+00    8.9058758724008928E+00    1.9634493185316044E+00
C    6.3392221768626911E+00    1.0139963689589726E+01    2.0387507444345760E+00
C    7.7865501995265243E+00    1.0116043650717222E+01    1.9566253928429684E+00
C    4.1956174080600759E+00    1.1375165252690756E+01    1.9186414488421690E+00
C    5.6294254786010374E+00    1.1385325379603705E+01    1.9997144949851762E+00
C    6.3818315670378958E+00    1.2626847777613618E+01    2.0698537289303540E+00
C    7.7915296978546449E+00    1.2587922461489779E+01    2.0382078139398931E+00
C    4.1938938293942130E+00    1.3815215514789516E+01    1.8801893447509839E+00
C    5.6309319915481399E+00    1.3849331811182683E+01    2.0694450667154185E+00
C    6.3432486323422674E+00    1.5098174067608021E+01    1.9911917888059834E+00
C    7.7613051785590264E+00    1.5082250732915544E+01    2.0136551009972283E+00
C    4.2179563095445376E+00    1.6255231000549973E+01    1.8715359755652119E+00
C    5.6355017321840961E+00    1.6281754821914355E+01    1.7876235353468286E+00
C    6.3224148957917814E+00    5.1904145207292709E+00    1.5208667885355396E+00
C    7.7587612857404000E+00    5.1805695753630525E+00    1.4038821702951294E+00
C    8.4400097198374482E+00    6.4332119935263776E+00    1.4831775843243185E+00
C    9.8987539689094390E+00    6.4259030682377629E+00    1.4067877439724539E+00
C    1.0637955869119457E+01    7.6642567717067154E+00    1.3875347176139801E+00
C    1.2052588066799869E+01    7.6432042688393285E+00    1.3115389948943352E+00
C    8.4734788465724886E+00    8.9046075570790428E+00    1.6630452957822370E+00
C    9.8844545790184863E+00    8.9119312953614820E+00    1.4883358105697302E+00
C    1.0592253826130200E+01    1.0119493253771275E+01    1.5433445017803329E+00
C    1.2061574293128105E+01    1.0096530479839556E+01    1.3619968151462365E+00
C    8.4667350900121328E+00    1.1323239327347855E+01    1.9350941876612104E+00
C    9.8560186427301915E+00    1.1330125824178817E+01    1.7252158431658424E+00
C    1.0595571365916671E+01    1.2601429796592276E+01    1.6312561510141306E+00
C    1.2015850507235326E+01    1.2557400298603387E+01    1.4792254904329047E+00
C    8.5193485965898486E+00    1.3803999858397665E+01    2.0502736087898703E+00
C    9.8856486191897801E+00    1.3829376818326779E+01    1.8511015470877865E+00
C    1.0580980776183488E+01    1.5054259822521162E+01    1.7232150192114537E+00
C    1.2048000034287135E+01    1.5048194445969045E+01    1.6178171251061846E+00
C    8.4768884963725721E+00    1.6312651510497879E+01    1.9148986992986792E+00
C    9.8995193664038350E+00    1.6289648990866958E+01    1.7773185080852407E+00
C    1.0615619260725820E+01    5.2136851633728787E+00    1.3775653126340519E+00
C    1.2018847160250980E+01    5.2206307191682759E+00    1.3947769757235204E+00
C   -1.0099221583575353E-01    1.8701333178413211E+01    1.7881259644724157E+00
C    1.3412463305109146E+00    1.8725337081010373E+01    1.7356980866960972E+00
C    2.0109026815772553E+00    1.9960409908317104E+01    1.7752395220693744E+00
C    3.4517332246917687E+00    1.9992493499452550E+01    1.8331024282723918E+00
C   -7.2478875465876016E-02    2.1191270106088794E+01    1.6912171240553759E+00
C    1.3425339868809090E+00    2.1194385405847527E+01    1.7681876847454634E+00
C    2.0503252575663535E+00    2.2443088588444244E+01    1.8120260829290160E+00
C    3.4911986558155923E+00    2.2467222942873320E+01    1.8429232667260371E+00
C   -1.0462932180675863E-01    2.3695275818846092E+01    1.7362052522949702E+00
C    1.3457151518741548E+00    2.3701252437979488E+01    1.7130412241930297E+00
C    2.0398314603003320E+00    2.4932401326272537E+01    1.6228201902190234E+00
C    3.4712263901428848E+00    2.4948780519432638E+01    1.7184306703438093E+00
C   -1.1120300593713445E-01    2.6134547748678173E+01    1.5848140036407368E+00
C    1.3308491997987753E+00    2.6136913514208086E+01    1.5348375855328951E+00
C    2.0411652412603560E+00    2.7384785178599227E+01    1.6091072568441676E+00
C    3.4869605818380744E+00    2.7423644379739489E+01    1.6923556176658638E+00
C   -9.8399662783919539E-02    2.8613447508407546E+01    1.7515558855338773E+00
C    1.3265172230524214E+00    2.8610265180406806E+01    1.7284267783536154E+00
C    2.0730432057522870E+00    1.7517033907254444E+01    1.7869866694202285E+00
C    3.5075577753437357E+00    1.7461597381012968E+01    1.8231792673826921E+00
C    4.1980472324191007E+00    1.8722259151272649E+01    1.8655565537820660E+00
C    5.6080849675301261E+00    1.8758476938333622E+01    1.7757474936598530E+00
C    6.3087843733205240E+00    2.0034526415962738E+01    1.8450073935803781E+00
C    7.7506692529794492E+00    2.0043868547223614E+01    1.8121030501957527E+00
C    4.1686943981664344E+00    2.1235934155585888E+01    1.8672060075862107E+00
C    5.6152815792677604E+00    2.1254777414356209E+01    1.9013304210084225E+00
C    6.3169395505949355E+00    2.2498259138665087E+01    1.7719882520262495E+00
C    7.7394407023446927E+00    2.2494896234320649E+01    1.6451589058305578E+00
C    4.2079859535464008E+00    2.3723454976346734E+01    1.7865604364491960E+00
C    5.6272405101189946E+00    2.3755461080647517E+01    1.7276810033934316E+00
C    6.3319858264163331E+00    2.4972554716908526E+01    1.6045564531151784E+00
C    7.7342065301427825E+00    2.4944721519463378E+01    1.4642486919598305E+00
C    4.2048846459521565E+00    2.6194095274906502E+01    1.6410134751704029E+00
C    5.6647327719882563E+00    2.6207324729488235E+01    1.6272405560348127E+00
C    6.3408592426048314E+00    2.7414228300794555E+01    1.4692125758165968E+00
C    7.7537290974312452E+00    2.7388811672033501E+01    1.3816107990460389E+00
C    4.1791613412989737E+00    2.8652353285898634E+01    1.6872832503109427E+00
C    5.6148525983724102E+00    2.8639133276345664E+01    1.5151662238856185E+00
C    6.3149278850130832E+00    1.7535780172012416E+01    1.7254726789219610E+00
C    7.7589497781558938E+00    1.7525768894587994E+01    1.8356131839441749E+00
C    8.4875440923790162E+00    1.8778279790714290E+01    1.7966123216982537E+00
C    9.9059771185701297E+00    1.8753846799576834E+01    1.6566049862451626E+00
C    1.0626703219708775E+01    2.0021689881181906E+01    1.6785832820519424E+00
C    1.2031869963654797E+01    2.0008958245482404E+01    1.6753491783784926E+00
C    8.4903161351969807E+00    2.1272729932954707E+01    1.7291462125561874E+00
C    9.9140331303311289E+00    2.1269749141111902E+01    1.7211395429618126E+00
C    1.0622643971360755E+01    2.2463935593346967E+01    1.6909961182592854E+00
C    1.2047856578929172E+01    2.2482443517221757E+01    1.7004676734000250E+00
C    8.4433387785642893E+00    2.3691743986187912E+01    1.5491069685424101E+00
C    9.8739866132179195E+00    2.3707405418433062E+01    1.5359610705843614E+00
C    1.0578404742997362E+01    2.4908476201886817E+01    1.4907175523733787E+00
C    1.2010477890419406E+01    2.4936330957408487E+01    1.4324698121756960E+00
C    8.4637613548580823E+00    2.6170340683205357E+01    1.3708103280829338E+00
C    9.8829912018383421E+00    2.6205938389234671E+01    1.4302836419106792E+00
C    1.0623158567795931E+01    2.7444991531146520E+01    1.3916842073674884E+00
C    1.2053197478063366E+01    2.7458109197518858E+01    1.3557588398825891E+00
C    8.4884709731732073E+00    2.8627649740691897E+01    1.3844274717250677E+00
C    9.9467926291689732E+00    2.8672365622379345E+01    1.3866007363690600E+00
C    1.0632067636168667E+01    1.7503731388810916E+01    1.6145869453138229E+00
C    1.2057263734234258E+01    1.7526845308053257E+01    1.5201588741793659E+00
C    1.2756283586628799E+01    6.4152471029505884E+00    1.3171637752655516E+00
C    1.4177971766807422E+01    6.3971566698083215E+00    1.3028322131350414E+00
C    1.4913303245145455E+01    7.5810764330371390E+00    1.2915082678419578E+00
C    1.6340460749688042E+01    7.6390131647996480E+00    1.3737846312900264E+00
C    1.2784698285350892E+01    8.8647821516284253E+00    1.2556160351509120E+00
C    1.4195906036194620E+01    8.8373751379295040E+00    1.1543096282086460E+00
C    1.4872243639542017E+01    1.0084671831888324E+01    1.2090256699407393E+00
C    1.6273862376066283E+01    1.0081142676872618E+01    1.2831037146054016E+00
C    1.2727960200590610E+01    1.1340739257626227E+01    1.4088455418739019E+00
C    1.4145739948126975E+01    1.1290938887042637E+01    1.3184076674858829E+00
C    1.4866651834240008E+01    1.2527286879717261E+01    1.3926677371577911E+00
C    1.6294582285975427E+01    1.2527480442962455E+01    1.4268463928029511E+00
C    1.2729830000174561E+01    1.3793366185819732E+01    1.4464755384406141E+00
C    1.4150906934327857E+01    1.3748178653716428E+01    1.4578502669199578E+00
C    1.4871301101172405E+01    1.5010604041087522E+01    1.4808272909373599E+00
C    1.6316146975587433E+01    1.5029804369699461E+01    1.5077932689730522E+00
C    1.2763388324329618E+01    1.6291425605674483E+01    1.5401326366735859E+00
C    1.4194977462280415E+01    1.6275646149296168E+01    1.4657348834519615E+00
C    1.4924778828808607E+01    5.1768769961407228E+00    1.3993914180686464E+00
C    1.6338642722008679E+01    5.2062368984849243E+00    1.4801187264270079E+00
C    1.7025637209333063E+01    6.4329773568845372E+00    1.4513548642023471E+00
C    1.8431675939370642E+01    6.4053884309053926E+00    1.4152056044555499E+00
C    1.9111846362526006E+01    7.6697754357679040E+00    1.4456124445808027E+00
C    2.0529132671138367E+01    7.6612596485849362E+00    1.6011523727939707E+00
C    1.7009086375179027E+01    8.8536936037918270E+00    1.2856373415118652E+00
C    1.8402768860574266E+01    8.9151605029856373E+00    1.3662217897947342E+00
C    1.9140420924731949E+01    1.0114930496599852E+01    1.4766504370272557E+00
C    2.0558007250910020E+01    1.0105575716548685E+01    1.6702126895473590E+00
C    1.6995532689722690E+01    1.1303156168451604E+01    1.3225405850511349E+00
C    1.8444660939079835E+01    1.1352639341539462E+01    1.3412393220898151E+00
C    1.9130375758155377E+01    1.2595713522674481E+01    1.5787540528182193E+00
C    2.0570426825441338E+01    1.2606632743840542E+01    1.7094677885700225E+00
C    1.6989989109465387E+01    1.3761336155761231E+01    1.5053399806800731E+00
C    1.8433468476422348E+01    1.3803208293795571E+01    1.6009597892688867E+00
C    1.9166895232514161E+01    1.5024616663392239E+01    1.5303381546717758E+00
C    2.0592396566505908E+01    1.5010539324092258E+01    1.6590018765430421E+00
C    1.7054176850746138E+01    1.6255590258089775E+01    1.4798266124260309E+00
C    1.8472296667938142E+01    1.6234015181480764E+01    1.5196588420951027E+00
C    1.9186235131524843E+01    5.1667082049520747E+00    1.4372083534739819E+00
C    2.0601362082565789E+01    5.1820938793058167E+00    1.5451081049293789E+00
C    2.1304933369775540E+01    6.4372376261460431E+00    1.6604487258277674E+00
C    2.2727850002572129E+01    6.4088233380479673E+00    1.7677196645742972E+00
C    2.3425457580152994E+01    7.6609928613182507E+00    1.8869609892210628E+00
C    2.4836865977620818E+01    7.6563432354517857E+00    1.9472483388937301E+00
C    2.1233328484111720E+01    8.9069010247426910E+00    1.7222516548904714E+00
C    2.2675172738188490E+01    8.8800403600643776E+00    1.8652479483140842E+00
C    2.3406023861981858E+01    1.0105888833251653E+01    1.8904339683661668E+00
C    2.4853539584576978E+01    1.0096785137435667E+01    1.9505399786185420E+00
C    2.1255962927270598E+01    1.1361049919071215E+01    1.7331429196749317E+00
C    2.2680927280294526E+01    1.1310494993631639E+01    1.8556067840237398E+00
C    2.3417126825098329E+01    1.2574429714061077E+01    1.8556449207911445E+00
C    2.4839287360345146E+01    1.2577624484335114E+01    1.8866396838500303E+00
C    2.1302641493491862E+01    1.3804958066918701E+01    1.7682340607903346E+00
C    2.2716780680391000E+01    1.3817839989947112E+01    1.8584201041466701E+00
C    2.3430577826034913E+01    1.5059504812298005E+01    2.0005471453815411E+00
C    2.4860359473578782E+01    1.5044448455471398E+01    2.0507607949519393E+00
C    2.1290366562898157E+01    1.6234525077383491E+01    1.7101176315398539E+00
C    2.2698466020521302E+01    1.6266495497177374E+01    1.8744614120455567E+00
C    2.3410260520482524E+01    5.1924694823089661E+00    1.6606792767511125E+00
C    2.4862784268327086E+01    5.1602316171843601E+00    1.8168290000259244E+00
C    1.2751928828119725E+01    1.8790499484371033E+01    1.5131579107206605E+00
C    1.4203237041988645E+01    1.8744658832349952E+01    1.5108053871819678E+00
C    1.4903052276851854E+01    1.9986331036613713E+01    1.4880283982844624E+00
C    1.6345563392957846E+01    1.9996970851879652E+01    1.3994090916175024E+00
C    1.2743124336977553E+01    2.1240302156982565E+01    1.6654419609008120E+00
C    1.4170251469379910E+01    2.1246862704246656E+01    1.5799459580082971E+00
C    1.4880069799290389E+01    2.2520960221480301E+01    1.5832140590419135E+00
C    1.6302164153113527E+01    2.2492511359477298E+01    1.6486385493142826E+00
C    1.2737633380406141E+01    2.3685392929604113E+01    1.5250395407728017E+00
C    1.4176968969920942E+01    2.3733480606638672E+01    1.5028563891322295E+00
C    1.4890776381692174E+01    2.4947424716434035E+01    1.5192899119055887E+00
C    1.6332328988715521E+01    2.4908904024429852E+01    1.6142660669233917E+00
C    1.2746804994937555E+01    2.6180283855407744E+01    1.4174625086253623E+00
C    1.4160939979378027E+01    2.6198817718075802E+01    1.4564861121183799E+00
C    1.4923976474703101E+01    2.7411605838861210E+01    1.4558495601429016E+00
C    1.6370162423961720E+01    2.7362789368155713E+01    1.4842596019155097E+00
C    1.2772664480261335E+01    2.8638829717284707E+01    1.3691413160145747E+00
C    1.4208056345647067E+01    2.8641412856102676E+01    1.4429304940939698E+00
C    1.4901860325335294E+01    1.7521514745667204E+01    1.4911755413491490E+00
C    1.6349520509065570E+01    1.7531795738140151E+01    1.5005313691485511E+00
C    1.7067694654964779E+01    1.8757377844410975E+01    1.4105141780357187E+00
C    1.8500948849755414E+01    1.8705799327122488E+01    1.5591962329968132E+00
C    1.9205231287504219E+01    1.9945362277144522E+01    1.5363803582669808E+00
C    2.0618966493826445E+01    1.9943152911972341E+01    1.5034663253798544E+00
C    1.7041114065446646E+01    2.1222904628664935E+01    1.5279910685631115E+00
C    1.8456863888148185E+01    2.1186178139913000E+01    1.5971549529792430E+00
C    1.9173381597910218E+01    2.2399901216252427E+01    1.6629511827438357E+00
C    2.0599243204649390E+01    2.2384546503244682E+01    1.5851192910942253E+00
C    1.7023840260955655E+01    2.3684905589435385E+01    1.7216367833540467E+00
C    1.8458926655401118E+01    2.3623275928027883E+01    1.7355326128931918E+00
C    1.9197767641154684E+01    2.4851264207948134E+01    1.6262034676979709E+00
C    2.0606349875409272E+01    2.4852325533086479E+01    1.5774500560444282E+00
C    1.7058162049183039E+01    2.6127379529228659E+01    1.5636820204187927E+00
C    1.8495556986269722E+01    2.6085766697262265E+01    1.5886557699661281E+00
C    1.9217026387619534E+01    2.7350870236886461E+01    1.5052604447089752E+00
C    2.0632858217840937E+01    2.7345095890170501E+01    1.5657127913953630E+00
C    1.7066367495929377E+01    2.8609443740732384E+01    1.5126779840615929E+00
C    1.8503858572614696E+01    2.8595485292502868E+01    1.4707304224543645E+00
C    1.9190455286781141E+01    1.7443045815059172E+01    1.5637305501213699E+00
C    2.0593109705880238E+01    1.7473854658790632E+01    1.5966311923398080E+00
C    2.1329584323142573E+01    1.8732079082535865E+01    1.5917917314677104E+00
C    2.2720523779156977E+01    1.8767749593460547E+01    1.7906167285547179E+00
C    2.3432579232561473E+01    1.9974741373711684E+01    1.7615305032503283E+00
C    2.4842026331036134E+01    1.9977152337706002E+01    1.6938934430064860E+00
C    2.1349144551200418E+01    2.1191077420676521E+01    1.5078611530345731E+00
C    2.2758597294021463E+01    2.1203091629812761E+01    1.6482371931031934E+00
C    2.3425677122168079E+01    2.2449019420563303E+01    1.6516806703288820E+00
C    2.4843820562775580E+01    2.2453454062715146E+01    1.7059467016175147E+00
C    2.1311801251874066E+01    2.3617844879036042E+01    1.5197903082372393E+00
C    2.2721473766833238E+01    2.3662805501802612E+01    1.6125228447855593E+00
C    2.3420701422381953E+01    2.4926257382967961E+01    1.5548037443570244E+00
C    2.4828783145792510E+01    2.4891950107060758E+01    1.6149181660592344E+00
C    2.1302749548567231E+01    2.6117986876212171E+01    1.5747931453941197E+00
C    2.2681156826900281E+01    2.6129343452911364E+01    1.5472679916147269E+00
C    2.3436563650846029E+01    2.7375993028670475E+01    1.5284983886803649E+00
C    2.4836681542079081E+01    2.7368356021952909E+01    1.6622381229203596E+00
C    2.1326416272938012E+01    2.8609241161787370E+01    1.4703861129436688E+00
C    2.2725936060190683E+01    2.8642962855730243E+01    1.5315647423014631E+00
C    2.3378407445595560E+01    1.7517195504242761E+01    1.8343672606873354E+00
C    2.4805612082964622E+01    1.7482324924105637E+01    1.8811185179762604E+00
O    1.9547669665458452E+02    1.7005390136257995E+02    1.5391545007061280E+01
H    1.9464960793867075E+02    1.6963869251855530E+02    1.4994772687182344E+01
H    1.9596925279621317E+02    1.7023822328813119E+02    1.4575390291488533E+01
O    1.6405156300006300E+02    2.2651946286683156E+02    2.1321231264561597E+01
H    1.6310588213817661E+02    2.2672358484749012E+02    2.1508012256328737E+01
H    1.6443531817096039E+02    2.2732990077693168E+02    2.0993065419539942E+01
O    7.3726804339296351E+01    2.8646118039676668E+02    1.8145593882180972E+01
H    7.4594750356114233E+01    2.8629675372525190E+02    1.8558462611575859E+01
H    7.3222678303519530E+01    2.8699867495921217E+02    1.8852162890736377E+01
O    1.8083045479870285E+02    2.0599942063561804E+02    1.2555505638555289E+01
H    1.8076980970356951E+02    2.0589883726213941E+02    1.1552566578755833E+01
H    1.8040362644537888E+02    2.0683887079689282E+02    1.2896838879174712E+01
O    1.2840166509407493E+02    2.2249401310207261E+02    5.2668258596216821E+00
H    1.2770403604114999E+02    2.2205678990432696E+02    4.7479221031127219E+00
H    1.2931150307397246E+02    2.2245475996564716E+02    4.8029216668496977E+00
O    1.2666341827202785E+02    2.2718261223059039E+02    1.4671391933414913E+01
H    1.2674143547683015E+02    2.2743694245233326E+02    1.5613564204200960E+01
H    1.2735389879752020E+02    2.2766703936629781E+02    1.4105147893582409E+01
O    6.6834658390002502E+01    3.6720654936958766E+02    2.1705896196772489E+01
H    6.7672532092694084E+01    3.6732264656152933E+02    2.1210566166254818E+01
H    6.7057122908783100E+01    3.6700450914223853E+02    2.2667432926644423E+01
O    1.4807287693689935E+02    1.9132208206566412E+02    6.9944605793978178E+00
H    1.4861500809020427E+02    1.9060304419520031E+02    7.3354851886277981E+00
H    1.4821603055464834E+02    1.9145345240711177E+02    6.0602624978523565E+00
O    8.4804404764065666E-01    2.0095066796388997E+02    2.0071041330525347E+01
H    1.2154120024494817E+00    2.0123528242911442E+02    2.0924861901388550E+01
H    1.0870235596556475E+00    1.9997716723733672E+02    1.9961710969839796E+01
O    2.1071207925849316E+02    3.0156815648611075E+02    5.5748181463088287E+00
H    2.0983501840042115E+02    3.0108356514824368E+02    5.4812159250498889E+00
H    2.1047242044191515E+02    3.0231425194580964E+02    6.1117848773182155E+00
O    1.2339115075737426E+02    2.9477609917551848E+02    1.9815824560501618E+01
H    1.2313756900032286E+02    2.9386614474669329E+02    1.9450488315867126E+01
H    1.2323362631626591E+02    2.9550430618225147E+02    1.9169242467089020E+01
O    1.1539124715848932E+02    2.6995751347709745E+02    1.7905872922953744E+01
H    1.1571292732842907E+02    2.7024975236316550E+02    1.8738213365641116E+01
H    1.1457367413290036E+02    2.7036641083927231E+02    1.7667273421710146E+01
O    1.6157837593717423E+02    1.5553212782123757E+02    1.1002474219281472E+01
H    1.6113722792217172E+02    1.5599460144720027E+02    1.0226415726925103E+01
H    1.6238984344417983E+02    1.5610753451233438E+02    1.1067852686214845E+01
O    1.1597598662174542E+02    1.1515471507651688E+02    1.3379856495456851E+01
H    1.1613203044810216E+02    1.1487167301636384E+02    1.4291557040723605E+01
H    1.1660482971289383E+02    1.1452374934425502E+02    1.2855655203335241E+01
O    1.5223532767737547E+02    3.7477595215283679E+02    4.8185845813655579E+00
H    1.5247656613673840E+02    3.7556588102677307E+02    4.2070599192213374E+00
H    1.5137186811142712E+02    3.7453932534478042E+02    4.4260786266113881E+00
O    1.0628036769546773E+02    2.6860027594236726E+02    5.2318496288536007E+00
H    1.0545457241637926E+02    2.6835840982434638E+02    4.8214943024828214E+00
H    1.0607253182189841E+02    2.6898168468472244E+02    6.1333871337884585E+00
O    1.5612509637530147E+02    1.7513927786463213E+02    1.0504903136236267E+01
H    1.5514906351881865E+02    1.7517994293983475E+02    1.0611611764553379E+01
H    1.5634174967216248E+02    1.7608904088776700E+02    1.0349665073760752E+01
O    1.6283314766333666E+02    1.9565349009598216E+02    9.4457964477257583E+00
H    1.6323685469951548E+02    1.9645040557555362E+02    9.8224922351228425E+00
H    1.6185938442827842E+02    1.9576410172192720E+02    9.3065408593840644E+00
O    6.1413755095304460E+01    2.2633609970913173E+02    9.2969248605630010E+00
H    6.0975764510398641E+01    2.2641817231986465E+02    8.4222140788904944E+00