 # Version information for this restart file 
 # current date 2020-04-18 07:20:45.358
 # current working dir /scratch/snx3000/gtocci/gtocci/MEMBRANES/AIMD_US_IONS_GRA/us_aimd_new/us_17
 # Program compiled at                              Fri Nov 22 15:19:42 CET 2019
 # Program compiled on                                                  daint102
 # Program compiled for                                   CRAY_XC50-gfortran_gpu
 # Source code revision number                                       git:a698b45
 &GLOBAL
   PRINT_LEVEL  LOW
   PROJECT_NAME GRAS
   RUN_TYPE  MD
   WALLTIME 86400
 &END GLOBAL
 &MOTION
   &MD
     ENSEMBLE  NVT
     STEPS  2000
     TIMESTEP     9.9999999999999989E-01
     STEP_START_VAL  75945
     TIME_START_VAL     7.5944999999936626E+04
     ECONS_START_VAL    -8.3018846600918150E+03
     TEMPERATURE     3.0000000000000000E+02
     TEMP_KIND  T
     &BAROSTAT
       PRESSURE     1.0000000000000000E+00
       TIMECON     9.9999999999999986E+01
       VIRIAL  Z
     &END BAROSTAT
     &THERMOSTAT
       TYPE  NOSE
       REGION  GLOBAL
       &NOSE
         LENGTH  4
         TIMECON     9.9999999999999986E+01
         MTS  2
         &COORD
               6.1756968827398381E-02   -2.2139484624824536E+01   -2.7000308725584027E+01    3.0769607735147535E+01
         &END COORD
         &VELOCITY
               1.5525631123331158E-06   -1.0754122411167841E-04    5.8112240103165244E-05    1.9075781657064168E-05
         &END VELOCITY
         &MASS
               7.0145132684705392E+07    1.6237299232570693E+04    1.6237299232570693E+04    1.6237299232570693E+04
         &END MASS
         &FORCE
              -1.4778451151024574E-09   -4.8096860269306309E-08   -4.6944898966666830E-08   -5.5132981400297142E-08
         &END FORCE
       &END NOSE
     &END THERMOSTAT
     &AVERAGES  T
       &RESTART_AVERAGES
         ITIMES_START  1
         AVECPU     3.0902774609826508E+01
         AVEHUGONIOT     0.0000000000000000E+00
         AVETEMP_BARO     0.0000000000000000E+00
         AVEPOT    -8.3067219022569643E+03
         AVEKIN     2.0537189022534506E+00
         AVETEMP     3.0022542762732166E+02
         AVEKIN_QM     0.0000000000000000E+00
         AVETEMP_QM     0.0000000000000000E+00
         AVEVOL     2.1331414786626332E+05
         AVECELL_A     4.8437460238121901E+01
         AVECELL_B     4.6608961231948342E+01
         AVECELL_C     9.4486306644281314E+01
         AVEALPHA     9.0000000000000028E+01
         AVEBETA     9.0000000000000028E+01
         AVEGAMMA     9.0000000000000028E+01
         AVE_ECONS    -5.4771366246192065E+02
         AVE_PRESS     0.0000000000000000E+00
         AVE_PXX     0.0000000000000000E+00
       &END RESTART_AVERAGES
     &END AVERAGES
     &PRINT
       &TEMP_KIND  SILENT
       &END TEMP_KIND
     &END PRINT
   &END MD
   &FREE_ENERGY
     &METADYN
       MIN_DISP    -1.0000000000000000E+00
       OLD_HILL_NUMBER  0
       OLD_HILL_STEP  0
       DO_HILLS  F
       STEP_START_VAL  75945
       NHILLS_START_VAL  0
       &METAVAR
         SCALE     1.0000000000000000E+00
         COLVAR  1
       &END METAVAR
       &PRINT
         &COLVAR  SILENT
           COMMON_ITERATION_LEVELS  3
           &EACH
             MD  1
           &END EACH
         &END COLVAR
       &END PRINT
     &END METADYN
   &END FREE_ENERGY
   &CONSTRAINT
     &COLLECTIVE
       COLVAR  1
       INTERMOLECULAR  T
       &RESTRAINT
         K     4.4625385281452931E-04
       &END RESTRAINT
     &END COLLECTIVE
     &COLVAR_RESTART
           1.6062672129527972E+01
     &END COLVAR_RESTART
   &END CONSTRAINT
   &PRINT
     &TRAJECTORY  SILENT
       &EACH
         MD  1
       &END EACH
     &END TRAJECTORY
     &VELOCITIES  SILENT
       &EACH
         MD  1
       &END EACH
     &END VELOCITIES
     &FORCES  SILENT
       UNIT eV*angstrom^-1
       &EACH
         MD  1
       &END EACH
     &END FORCES
     &RESTART  SILENT
       &EACH
         MD  1
       &END EACH
     &END RESTART
     &RESTART_HISTORY  SILENT
       &EACH
         MD  100
       &END EACH
     &END RESTART_HISTORY
   &END PRINT
 &END MOTION
 &FORCE_EVAL
   METHOD  QS
   &DFT
     BASIS_SET_FILE_NAME /users/gtocci/scratch_daint_3000/data_cp2k//BASIS_MOLOPT
     POTENTIAL_FILE_NAME /users/gtocci/scratch_daint_3000/data_cp2k//GTH_POTENTIALS
     WFN_RESTART_FILE_NAME ./GRAS-RESTART.wfn
     CHARGE  -1
     &SCF
       MAX_SCF  10
       EPS_SCF     9.9999999999999995E-07
       SCF_GUESS  RESTART
       &OT  T
         MINIMIZER  DIIS
         PRECONDITIONER  FULL_KINETIC
       &END OT
       &OUTER_SCF  T
         EPS_SCF     9.9999999999999995E-07
         MAX_SCF  30
       &END OUTER_SCF
       &PRINT
         &RESTART  SILENT
           ADD_LAST  NUMERIC
           &EACH
             QS_SCF  50
           &END EACH
         &END RESTART
       &END PRINT
     &END SCF
     &QS
       MAP_CONSISTENT  T
       EXTRAPOLATION  ASPC
       EXTRAPOLATION_ORDER  4
     &END QS
     &MGRID
       NGRIDS  5
       CUTOFF     4.6000000000000000E+02
     &END MGRID
     &XC
       DENSITY_CUTOFF     1.0000000000000000E-10
       GRADIENT_CUTOFF     1.0000000000000000E-10
       TAU_CUTOFF     1.0000000000000000E-10
       &XC_GRID
         XC_DERIV  SPLINE2_SMOOTH
       &END XC_GRID
       &XC_FUNCTIONAL  NO_SHORTCUT
         &LIBXC  T
           FUNCTIONAL XC_GGA_X_OPTB88_VDW
         &END LIBXC
         &VWN  T
         &END VWN
       &END XC_FUNCTIONAL
       &VDW_POTENTIAL
         POTENTIAL_TYPE  NON_LOCAL
         &NON_LOCAL
           TYPE  DRSLL
           VERBOSE_OUTPUT  T
           KERNEL_FILE_NAME /users/gtocci/scratch_daint_3000/data_cp2k//vdW_kernel_table.dat
         &END NON_LOCAL
       &END VDW_POTENTIAL
     &END XC
     &REAL_TIME_PROPAGATION
       INITIAL_WFN  SCF_WFN
     &END REAL_TIME_PROPAGATION
     &PRINT
       &MULLIKEN  SILENT
         FILENAME =GRAS.mulliken
       &END MULLIKEN
     &END PRINT
   &END DFT
   &SUBSYS
     &CELL
       A     2.5632000000000001E+01    0.0000000000000000E+00    0.0000000000000000E+00
       B     0.0000000000000000E+00    2.4664400000000022E+01    0.0000000000000000E+00
       C     0.0000000000000000E+00    0.0000000000000000E+00    5.0000000000000028E+01
       MULTIPLE_UNIT_CELL  1 1 1
     &END CELL
     &COORD
C    1.0438910654525023E+01    2.7953981404751964E+00    8.1992598723327603E+00
C    1.1845109452984525E+01    2.8301976882799575E+00    8.2244890006236204E+00
C    1.2501962738506700E+01    4.0550878860894457E+00    8.0687498620679516E+00
C    1.3954266776926440E+01    4.0633252843441685E+00    7.9761291385088553E+00
C    1.0451978545137019E+01    5.2902827979436235E+00    8.1178804495841614E+00
C    1.1862374613637225E+01    5.3004803901470998E+00    8.0660140229764909E+00
C    1.2567836429028342E+01    6.5359022911151952E+00    7.9526956892769238E+00
C    1.4012999429301857E+01    6.5508098916909061E+00    7.8952549270105665E+00
C    1.0435641651108403E+01    7.7361725701062305E+00    7.9461596211849015E+00
C    1.1838485869655180E+01    7.7556530718750087E+00    7.9138837315290784E+00
C    1.2540018044923668E+01    8.9996325113450659E+00    7.9185114084167738E+00
C    1.3962185446863954E+01    8.9741494423652970E+00    7.8387543701097684E+00
C    1.0451877630757924E+01    1.0272085327388529E+01    7.8318076419886316E+00
C    1.1858250668865926E+01    1.0244605303478814E+01    7.9852784522666811E+00
C    1.2601012953918234E+01    1.1430689014002937E+01    7.9071959993719343E+00
C    1.4036120582043036E+01    1.1463263231409702E+01    7.9594224862312046E+00
C    1.0479819264219820E+01    1.2719989541056549E+01    7.7169744895785568E+00
C    1.1935087524569292E+01    1.2660182142811017E+01    7.7516513761226467E+00
C    1.2511042335985154E+01    1.5769232408021427E+00    8.1162651654453111E+00
C    1.3932613909120892E+01    1.6126583105479255E+00    8.0191212678526735E+00
C    1.4661702059171368E+01    2.8754152008358673E+00    7.9926397562159348E+00
C    1.6131686627780457E+01    2.8627378757869248E+00    7.9457464676092666E+00
C    1.6829754160373000E+01    4.0733267802533319E+00    8.0613358689585208E+00
C    1.8281544254530658E+01    4.0298730580587012E+00    8.1881510155101189E+00
C    1.4678280786063052E+01    5.2962265990649477E+00    7.9617272023146617E+00
C    1.6111581073032436E+01    5.3191769103421764E+00    8.0211719406376307E+00
C    1.6809763040553062E+01    6.5112904906762674E+00    7.8453463157087446E+00
C    1.8214323389680395E+01    6.5131161499282717E+00    7.8912187646870890E+00
C    1.4678968415945647E+01    7.7509378919808638E+00    7.8517462613829956E+00
C    1.6131169256879289E+01    7.7537734953859792E+00    7.7444356224676225E+00
C    1.6798614588749981E+01    9.0076536442803583E+00    7.7865363720257195E+00
C    1.8236808345456012E+01    8.9876731994204100E+00    7.8408187861467757E+00
C    1.4728886326317301E+01    1.0230744005727159E+01    7.9194342508885480E+00
C    1.6156425751432437E+01    1.0231588667658571E+01    7.8547827948233033E+00
C    1.6861828642267849E+01    1.1463005789567717E+01    7.7812112369972262E+00
C    1.8302405491671422E+01    1.1466982073388175E+01    7.9615595866223581E+00
C    1.4699426903996118E+01    1.2675389137066910E+01    7.8219633847674652E+00
C    1.6123997870088520E+01    1.2673547962308403E+01    7.7428592749148519E+00
C    1.6838553515782014E+01    1.6127214215722074E+00    7.9918715610437330E+00
C    1.8256323128185475E+01    1.5828541794049955E+00    8.0976538466122410E+00
C    1.9022820325213360E+01    2.8469198743529600E+00    8.0739211651451743E+00
C    2.0415484086065081E+01    2.8289518871863035E+00    8.0789717136870980E+00
C    2.1114035809577295E+01    4.0683634706670624E+00    8.0133558629010935E+00
C    2.2531870580502140E+01    4.0662870435568115E+00    7.9288748416366523E+00
C    1.8949493187111624E+01    5.2869604769683924E+00    8.0328432964460124E+00
C    2.0428976013099831E+01    5.3035825382052249E+00    8.0556686488502756E+00
C    2.1089882191087941E+01    6.5172946624641659E+00    7.9592033891130853E+00
C    2.2525420745387738E+01    6.4794729654860692E+00    7.9459238614215115E+00
C    1.8924595939259778E+01    7.7180253745765492E+00    7.8731085928321392E+00
C    2.0352830109063220E+01    7.7465205432086321E+00    7.9942750861406999E+00
C    2.1058224913372850E+01    8.9852139825303592E+00    7.9863974056542411E+00
C    2.2494801964220358E+01    8.9380088328036162E+00    7.9632847736082431E+00
C    1.8942210620287860E+01    1.0240855236014214E+01    7.8715418315780949E+00
C    2.0391103706797704E+01    1.0236214909016153E+01    7.9508959459973587E+00
C    2.1095291764940992E+01    1.1499917124446430E+01    8.0432136635346865E+00
C    2.2498879414085796E+01    1.1486477373954386E+01    8.0258405820104155E+00
C    1.9032169056016432E+01    1.2656025684529300E+01    8.0311798344069167E+00
C    2.0390844138450330E+01    1.2732372259806553E+01    8.1149764373599300E+00
C    2.1118662859023154E+01    1.6042284000827132E+00    7.9936194574945292E+00
C    2.2563826135233999E+01    1.6412784127091278E+00    7.9515872591143992E+00
C    1.0412484685213824E+01    1.5211851220515673E+01    7.4942933992637215E+00
C    1.1844680635701641E+01    1.5197473517777585E+01    7.5784185647547249E+00
C    1.2554984907164821E+01    1.6372931195064663E+01    7.5649903681415589E+00
C    1.4016625624324377E+01    1.6380518927594565E+01    7.6148705911381551E+00
C    1.0413932898606213E+01    1.7693145883253223E+01    7.7376883640246472E+00
C    1.1844890035423663E+01    1.7656715949027550E+01    7.6443198835389063E+00
C    1.2518717245315589E+01    1.8854433341003727E+01    7.7269473310406083E+00
C    1.3958795739687789E+01    1.8861657895411483E+01    7.7518993974353618E+00
C    1.0441530778778828E+01    2.0104686417806970E+01    7.6903876015256252E+00
C    1.1837210336489711E+01    2.0094039160371629E+01    7.7892190316100827E+00
C    1.2523390995148764E+01    2.1286356183961139E+01    7.8600532939321459E+00
C    1.3965681691957050E+01    2.1304102692965710E+01    7.9053054496533424E+00
C    1.0406557810116674E+01    2.2562192383102342E+01    7.6883957680679726E+00
C    1.1766101191012405E+01    2.2537534908649242E+01    7.8176085051818633E+00
C    1.2530078497282886E+01    2.3755864701314476E+01    7.9556088345098654E+00
C    1.3945737556517239E+01    2.3794873008493902E+01    8.0128411661712313E+00
C    1.0391386597297601E+01    2.4958686036051692E+01    7.9797033389403067E+00
C    1.1801182695903963E+01    2.5044441644365783E+01    7.9595533637744031E+00
C    1.2600206413519107E+01    1.3927988229197382E+01    7.6189209121432340E+00
C    1.4062680669524047E+01    1.3897030987859482E+01    7.6755966835605260E+00
C    1.4751174193362280E+01    1.5159572723833515E+01    7.6020062449812977E+00
C    1.6162018022105187E+01    1.5194905084751168E+01    7.6801442744278621E+00
C    1.6863540617470150E+01    1.6414523896530369E+01    7.8373248253118488E+00
C    1.8275313770814950E+01    1.6406038641143407E+01    8.0256983598266718E+00
C    1.4675051754996256E+01    1.7606172301735516E+01    7.7149820490406960E+00
C    1.6116769488437367E+01    1.7641834005973546E+01    7.8841552870516605E+00
C    1.6831787296087217E+01    1.8858583025593909E+01    8.0860432379398439E+00
C    1.8270097854647279E+01    1.8889030646556819E+01    8.1812960204206497E+00
C    1.4687850226971484E+01    2.0063053961480744E+01    7.8962500493554257E+00
C    1.6098841694866337E+01    2.0044340009489034E+01    8.0400913088741728E+00
C    1.6777541957840945E+01    2.1342477861893776E+01    8.0469536497459959E+00
C    1.8237107175399490E+01    2.1380317838134964E+01    8.1420421703761736E+00
C    1.4721483524024505E+01    2.2572316955348498E+01    7.9353046923308250E+00
C    1.6125350576262719E+01    2.2588471443503721E+01    8.1399453907541091E+00
C    1.6856858928437042E+01    2.3839609269987434E+01    8.1698719351758964E+00
C    1.8254171558169020E+01    2.3814390730323776E+01    8.0918380731953423E+00
C    1.4627417838779023E+01    2.5034007948731222E+01    8.0270582741421013E+00
C    1.6095431307272449E+01    2.5062100060459390E+01    8.1389192041798246E+00
C    1.6853801548324967E+01    1.3920875669688435E+01    7.7153373897555646E+00
C    1.8278509880349276E+01    1.3901316267814025E+01    7.9241368726909283E+00
C    1.9048995001744078E+01    1.5144254363673493E+01    8.0312302337868982E+00
C    2.0431328970518678E+01    1.5184246480399018E+01    8.0970127725915226E+00
C    2.1073131773818499E+01    1.6409384395006683E+01    8.1644289166021125E+00
C    2.2503756722841604E+01    1.6468109056440113E+01    8.1610027799081699E+00
C    1.8931999504813259E+01    1.7624858185613036E+01    8.1404005760926523E+00
C    2.0298358906009280E+01    1.7623154388635385E+01    8.2029462378296376E+00
C    2.0997613472239589E+01    1.8855301012591124E+01    8.1567406153469726E+00
C    2.2451188985055193E+01    1.8855467364348254E+01    7.9989922561792683E+00
C    1.8916628330572134E+01    2.0150925964527218E+01    8.2246781277204324E+00
C    2.0339469048812266E+01    2.0124771362867225E+01    8.2039135482865504E+00
C    2.1085082882105144E+01    2.1297831619497604E+01    8.0934149846148422E+00
C    2.2534412095171465E+01    2.1302887315310041E+01    7.9607914064871261E+00
C    1.8994268144723172E+01    2.2609738059401838E+01    8.1162731781211672E+00
C    2.0402642925856316E+01    2.2564961874232612E+01    8.0776641772108171E+00
C    2.1131964412200396E+01    2.3795003381323184E+01    8.1271286139690186E+00
C    2.2532359965045398E+01    2.3815604838493481E+01    7.9393401637473362E+00
C    1.9002566106327865E+01    2.5047271606123694E+01    8.1025453792851216E+00
C    2.0380584111893381E+01    2.5012140852289455E+01    8.1112502762895922E+00
C    2.1118582186578500E+01    1.3954258585351972E+01    8.1379929484834914E+00
C    2.2513198890641679E+01    1.3970090593760583E+01    8.1479632685254835E+00
C    2.3242044408865286E+01    2.8407803748836020E+00    7.9758357836009806E+00
C    2.4620443860446937E+01    2.7585195379208205E+00    7.8345401842351849E+00
C    2.5344006755609122E+01    4.0481557497458063E+00    7.8518308908785466E+00
C    2.6791169497895840E+01    4.0782442436083066E+00    7.8623670496616977E+00
C    2.3267681391495906E+01    5.2768919868160991E+00    7.9877276044325152E+00
C    2.4697447121182222E+01    5.2967406329599083E+00    7.9150908695487097E+00
C    2.5403556928600750E+01    6.5580736676297198E+00    7.9443417366711842E+00
C    2.6864514474129479E+01    6.5442279678819348E+00    8.0432994061600578E+00
C    2.3222792929612904E+01    7.7205325087080601E+00    7.9905045151197873E+00
C    2.4663374660818089E+01    7.7754209228741660E+00    7.9765122313558861E+00
C    2.5334558491894729E+01    8.9807002191286518E+00    8.0571265588411691E+00
C    2.6763035842070106E+01    8.9900870510310984E+00    8.1286377237032870E+00
C    2.3222055878042774E+01    1.0210241760602459E+01    7.9839445235788551E+00
C    2.4637869113364495E+01    1.0206159544657622E+01    8.0751304054953081E+00
C    2.5357919818726828E+01    1.1433763528896515E+01    8.0765786981219794E+00
C    2.6788402601500270E+01    1.1429479248779570E+01    8.0334810272612653E+00
C    2.3188823311591598E+01    1.2700195119559746E+01    8.0802431832323194E+00
C    2.4636951065372287E+01    1.2734897041738412E+01    8.1185250006579732E+00
C    2.5328182342150317E+01    1.5427215010762751E+00    7.7362374846464572E+00
C    2.6787276270399804E+01    1.5916077650990859E+00    7.8127740359177045E+00
C    2.7489761739558396E+01    2.8165798428963744E+00    7.9667663358772431E+00
C    2.8867854739864910E+01    2.8126692915977447E+00    8.1761750471466108E+00
C    2.9624070540199892E+01    4.0186117529601928E+00    8.1099434034646247E+00
C    3.1091867335845613E+01    4.0168701427117828E+00    8.2303124868529416E+00
C    2.7529818272329912E+01    5.2916665686948958E+00    7.9676920687158663E+00
C    2.8968610065140240E+01    5.2673489154938062E+00    7.9772646728510725E+00
C    2.9663540607377548E+01    6.5668807600889147E+00    7.9140084378372464E+00
C    3.1092975013128285E+01    6.4822238390485429E+00    7.9090317398375696E+00
C    2.7507655138003045E+01    7.7843435351244565E+00    8.0840356767231629E+00
C    2.8945538352599296E+01    7.7951506973498885E+00    7.9459942095962353E+00
C    2.9683210348697973E+01    8.9900619359266472E+00    7.8061815673601691E+00
C    3.1105714626065371E+01    8.9508725125295587E+00    7.8157731463592475E+00
C    2.7487145878114500E+01    1.0193269495089975E+01    7.9716842488312549E+00
C    2.8920888007864978E+01    1.0221594047088351E+01    7.8540443376261306E+00
C    2.9599499965070837E+01    1.1462228186757510E+01    7.8809021641871047E+00
C    3.1045541968404709E+01    1.1421898476626525E+01    7.9419774470389370E+00
C    2.7418475364126810E+01    1.2692420694642799E+01    7.9372097648346793E+00
C    2.8872603656647463E+01    1.2688526939661038E+01    7.9659540125388659E+00
C    2.9626768600106796E+01    1.6129635185494218E+00    8.0830774649211516E+00
C    3.1048869601230621E+01    1.6010568234101463E+00    8.2407280934089009E+00
C    3.1791760375509128E+01    2.7982866399222894E+00    8.2782782617142168E+00
C    3.3225144370160756E+01    2.7785453673781291E+00    8.2891720759959888E+00
C    3.3946597337131166E+01    4.0335589044873688E+00    8.2542364356529063E+00
C    3.5400518736857933E+01    4.0487521852786266E+00    8.1798776747264110E+00
C    3.1777292921315500E+01    5.2620764008358600E+00    8.0794298302012564E+00
C    3.3205993746010080E+01    5.2902909396899167E+00    8.1019919591904781E+00
C    3.3943524704690681E+01    6.5660323306333215E+00    7.9759465816115123E+00
C    3.5374908989041266E+01    6.5397797739557104E+00    8.1007498952401580E+00
C    3.1827211578799794E+01    7.7349192522448700E+00    7.9380246641011309E+00
C    3.3248614107438058E+01    7.7540392754944838E+00    7.9912340112950151E+00
C    3.3954877240561949E+01    8.9960932927905848E+00    7.9203140412421753E+00
C    3.5351086384760301E+01    9.0485613801446565E+00    7.8889998175994611E+00
C    3.1754574360114972E+01    1.0197772988348845E+01    7.8803142679349900E+00
C    3.3200348715941615E+01    1.0199625548273502E+01    7.8576109921313506E+00
C    3.3874520416231270E+01    1.1439193486848245E+01    7.7172757109113235E+00
C    3.5364195118458845E+01    1.1488034531912440E+01    7.7351335807859849E+00
C    3.1781316098446815E+01    1.2644352014279743E+01    7.9459052953200660E+00
C    3.3192419831801629E+01    1.2708317869504564E+01    7.8064653320418689E+00
C    3.3941327844267384E+01    1.5789427149748891E+00    8.1562118637317713E+00
C    3.5330423884835156E+01    1.5796445894745303E+00    8.1037154724475453E+00
C    2.3218421820884405E+01    1.5197685484102472E+01    8.0234329019232984E+00
C    2.4605007359449999E+01    1.5160685997540062E+01    8.0246251986886801E+00
C    2.5330790525941499E+01    1.6414694510875758E+01    7.8830531465409184E+00
C    2.6805229126283042E+01    1.6381509741807879E+01    7.8998734144348699E+00
C    2.3207510734272365E+01    1.7658176636395289E+01    8.0599690229780716E+00
C    2.4604492280478357E+01    1.7612300403524230E+01    7.9690170531611280E+00
C    2.5310814521378713E+01    1.8871978272819860E+01    7.8826589221447243E+00
C    2.6756681483816870E+01    1.8853584012482493E+01    7.9284710475187907E+00
C    2.3178281895964538E+01    2.0068497522513884E+01    8.0218533537846444E+00
C    2.4617459433949573E+01    2.0097068471697526E+01    7.8503942054123179E+00
C    2.5330141191557107E+01    2.1311517303481221E+01    7.8450440889536228E+00
C    2.6745550684957166E+01    2.1368644939464232E+01    7.9860166981189691E+00
C    2.3236842707494695E+01    2.2562704281385461E+01    7.8915682364177258E+00
C    2.4632102231170265E+01    2.2539635228740806E+01    7.7763263498288637E+00
C    2.5386475511735870E+01    2.3732393228424201E+01    7.6900039355790550E+00
C    2.6783105979666484E+01    2.3749540289763317E+01    7.8901587261789015E+00
C    2.3254241853038604E+01    2.5018546916815552E+01    7.8257077814853941E+00
C    2.4672812720682753E+01    2.4971083920488173E+01    7.7115840733286136E+00
C    2.5343780434673935E+01    1.3961974445234311E+01    8.0035648907794386E+00
C    2.6763258741623591E+01    1.3905823908283839E+01    7.9298810805410671E+00
C    2.7487090481350233E+01    1.5127485530992885E+01    7.9116074514941648E+00
C    2.8910729128852005E+01    1.5119181450136249E+01    8.0507977987939636E+00
C    2.9615411860731491E+01    1.6390724366600921E+01    8.0312463594175103E+00
C    3.1045945609435986E+01    1.6366877324600104E+01    7.9354113907880599E+00
C    2.7482801070974684E+01    1.7644667644456106E+01    7.9295522376388545E+00
C    2.8892757087519236E+01    1.7608717545736734E+01    8.0197415302296289E+00
C    2.9596277026448242E+01    1.8855087821310583E+01    8.0205903526645770E+00
C    3.1038976588502155E+01    1.8873317223711407E+01    7.9381781324612719E+00
C    2.7496771604117395E+01    2.0083067284542512E+01    8.0075301875601159E+00
C    2.8906653344776252E+01    2.0105546572208439E+01    7.9984170500388938E+00
C    2.9653301595825138E+01    2.1311533171759240E+01    8.0617400173225491E+00
C    3.1045161822061871E+01    2.1300782674480566E+01    7.9853584829737647E+00
C    2.7481765440835041E+01    2.2560732379579452E+01    7.9763152006907649E+00
C    2.8920616899141507E+01    2.2572207564874493E+01    8.0428156376531348E+00
C    2.9663243635303150E+01    2.3767081224077387E+01    8.0399081437251834E+00
C    3.1086212479329017E+01    2.3790058675641273E+01    8.0370042545172318E+00
C    2.7506994540749972E+01    2.5008984563798737E+01    7.8894423842580288E+00
C    2.8931518214497359E+01    2.5063471097716011E+01    8.0502797634163770E+00
C    2.9600519818837004E+01    1.3853231053600318E+01    8.0393063329033119E+00
C    3.1085192188556860E+01    1.3894130939170138E+01    8.1011065912001552E+00
C    3.1780490060297989E+01    1.5132632725705113E+01    7.9479635819161141E+00
C    3.3245659757717632E+01    1.5154710013143593E+01    7.7793598907177648E+00
C    3.3909803168022201E+01    1.6432524623694782E+01    7.7482583088987083E+00
C    3.5353563744748094E+01    1.6412585839721050E+01    7.7953309779537676E+00
C    3.1742761645258504E+01    1.7634588677204224E+01    7.8770576572686455E+00
C    3.3197239315839347E+01    1.7634050908870158E+01    7.8278773959848342E+00
C    3.3905826310743770E+01    1.8915030308813051E+01    7.9400292113898008E+00
C    3.5338071006739504E+01    1.8906650619909414E+01    7.8038721119127841E+00
C    3.1749415435876941E+01    2.0101542889595819E+01    8.0005507007528642E+00
C    3.3211038048828378E+01    2.0162490011352851E+01    7.8330566298583086E+00
C    3.3939326944279053E+01    2.1361752457075887E+01    7.7274154896083855E+00
C    3.5338981234455311E+01    2.1345712455280655E+01    7.6360013362979524E+00
C    3.1786394503140446E+01    2.2546200009827334E+01    7.9564590714429917E+00
C    3.3196858984782459E+01    2.2595916514475544E+01    7.8401431582327694E+00
C    3.3917322477886685E+01    2.3807342978834999E+01    7.9595977662096979E+00
C    3.5343108195515413E+01    2.3746715378602996E+01    7.7964233585788305E+00
C    3.1780317812943032E+01    2.5060288011556352E+01    8.0743075413907075E+00
C    3.3164149608679566E+01    2.4997091490570959E+01    8.0821022984718009E+00
C    3.3907446237610884E+01    1.3917656422751181E+01    7.6591855039231067E+00
C    3.5386255186952297E+01    1.3952724725015818E+01    7.6702078379343934E+00
O    2.9585076918123769E+02   -4.5591715770084512E+01    2.3902525890922334E+01
H    2.9543373688398066E+02   -4.5825638358982239E+01    2.3073742963047767E+01
H    2.9516562028596030E+02   -4.4997593519219052E+01    2.4332602481840311E+01
O    3.0012400273398856E+02   -4.6319948495227898E+01    2.1870458087358493E+01
H    2.9975338828991141E+02   -4.6359927239310913E+01    2.0894827610953620E+01
H    3.0072100449033746E+02   -4.5485314370041984E+01    2.1828345208016120E+01
O    1.4296019387988056E+02    5.3355620088745773E+01    1.1542776113102581E+01
H    1.4220588999793844E+02    5.3621729785028286E+01    1.0993271496985646E+01
H    1.4371214899298596E+02    5.4009373065564617E+01    1.1422452195344722E+01
O    3.5862748144529655E+02   -1.3859330724488643E+01    1.9248384588075091E+01
H    3.5821907493991500E+02   -1.3263146763299714E+01    1.8648723440315294E+01
H    3.5926016635860299E+02   -1.3354932614433629E+01    1.9745509228849553E+01
O    2.6940233982346984E+02    6.5269977380824244E+01    1.9558035640666251E+01
H    2.6967199865173723E+02    6.5080887490966134E+01    1.8615950802883173E+01
H    2.6902538612436223E+02    6.4480186278765885E+01    2.0032773241041259E+01
O    2.8222273652863720E+02   -1.5810546210368802E+01    1.6594408440123317E+01
H    2.8266948753880331E+02   -1.4962619569048588E+01    1.6820027131030738E+01
H    2.8193978205179570E+02   -1.5716147413517620E+01    1.5668281810375298E+01
O    3.2916629550737332E+02    1.9861918222104077E+01    2.0621681270587153E+01
H    3.2859751866749804E+02    1.9934461727266399E+01    1.9878511463767961E+01
H    3.2898791423061454E+02    2.0713778947205597E+01    2.1124322606787178E+01
O    2.6921185365456859E+02   -2.8964289517659136E+01    1.1395191762386846E+01
H    2.6866434608675638E+02   -2.8395575729501989E+01    1.0816293680461184E+01
H    2.7000701770167353E+02   -2.9314701259941174E+01    1.0853942429770211E+01
O    1.6851687447694050E+02    7.7675901822810957E+01    1.4220364085651861E+01
H    1.6759334510782676E+02    7.7548378991398721E+01    1.4400721666335619E+01
H    1.6848102658234245E+02    7.7965701964803728E+01    1.3261557738819764E+01
O    3.8185990565500947E+02    8.3928104398429866E+01    2.0073429396799366E+01
H    3.8277605490614258E+02    8.4169860921362755E+01    1.9886727457043005E+01
H    3.8197471328143587E+02    8.2963460517272139E+01    1.9889912959337778E+01
O    2.9626574942869291E+02    3.8401920426059661E+01    1.0971606913532986E+01
H    2.9671699525656231E+02    3.7603395826763638E+01    1.0629976979099354E+01
H    2.9665558949129257E+02    3.8617152668567655E+01    1.1899775873283479E+01
O    1.7514756176196605E+02    2.2545614957798094E+01    2.1968392110848082E+01
H    1.7513282952818196E+02    2.3294700202807423E+01    2.1298160209258519E+01
H    1.7601356619952924E+02    2.2465555399920468E+01    2.2273618100488207E+01
O    2.0708305181048229E+02   -2.9558157629181931E+01    2.4047419359549501E+01
H    2.0765374463222940E+02   -2.9467956781742267E+01    2.3213058118554606E+01
H    2.0656596261250394E+02   -3.0373814400585037E+01    2.3948806352315263E+01
O    3.0543328821605576E+02   -9.5071416843903080E+01    2.7748474909430723E+01
H    3.0544575421726319E+02   -9.5463768894314242E+01    2.8637562025714537E+01
H    3.0508693874969975E+02   -9.4132936224759746E+01    2.7884417734399886E+01
O    2.0395750350939906E+02    1.4210437927648255E+02    2.0292767294686527E+01
H    2.0332919636431632E+02    1.4285042241771498E+02    2.0153096298562566E+01
H    2.0369339734238235E+02    1.4178299946341650E+02    2.1184803438042941E+01
O    2.8873462707253890E+02    1.0483512469736793E+02    1.2369491727097659E+01
H    2.8802191526491157E+02    1.0501567058229058E+02    1.3137171474258928E+01
H    2.8842919779715504E+02    1.0389533220088707E+02    1.2178843004871126E+01
O    2.5707393142868295E+02    5.4956326580489467E+01    1.4372016900212884E+01
H    2.5672670404617651E+02    5.4631403530470713E+01    1.3492456574837917E+01
H    2.5616831573029083E+02    5.4889246335406355E+01    1.4937995268261098E+01
O    3.3381878046333168E+02    6.2179666774085895E+01    2.4878213329877582E+01
H    3.3359445054436043E+02    6.1801555241082475E+01    2.3988172905581315E+01
H    3.3475907024490567E+02    6.1918922776833881E+01    2.5116263852433324E+01
O    2.2360343754085685E+02    1.8223070622315237E+01    1.7608748435694913E+01
H    2.2409634328571832E+02    1.7359070089152034E+01    1.7772664294666875E+01