 # Version information for this restart file 
 # current date 2020-04-18 20:37:41.458
 # current working dir /scratch/snx3000/gtocci/gtocci/MEMBRANES/AIMD_US_IONS_GRA/us_aimd_new/us_28
 # Program compiled at                              Fri Nov 22 15:19:42 CET 2019
 # Program compiled on                                                  daint102
 # Program compiled for                                   CRAY_XC50-gfortran_gpu
 # Source code revision number                                       git:a698b45
 &GLOBAL
   PRINT_LEVEL  LOW
   PROJECT_NAME GRAS
   RUN_TYPE  MD
   WALLTIME 86400
 &END GLOBAL
 &MOTION
   &MD
     ENSEMBLE  NVT
     STEPS  2000
     TIMESTEP     9.9999999999999989E-01
     STEP_START_VAL  79974
     TIME_START_VAL     7.9973999999930398E+04
     ECONS_START_VAL    -8.3037515093977308E+03
     TEMPERATURE     3.0000000000000000E+02
     TEMP_KIND  T
     &BAROSTAT
       PRESSURE     1.0000000000000000E+00
       TIMECON     9.9999999999999986E+01
       VIRIAL  Z
     &END BAROSTAT
     &THERMOSTAT
       TYPE  NOSE
       REGION  GLOBAL
       &NOSE
         LENGTH  4
         TIMECON     9.9999999999999986E+01
         MTS  2
         &COORD
               2.0303041466558067E-01    1.0044744365558168E+01   -2.5853339209877305E+01    2.2932513177984404E+01
         &END COORD
         &VELOCITY
               8.4471273125896552E-06    2.3884012601613967E-04   -2.3958664907231309E-04    3.3342731212863426E-04
         &END VELOCITY
         &MASS
               7.0145132684705392E+07    1.6237299232570693E+04    1.6237299232570693E+04    1.6237299232570693E+04
         &END MASS
         &FORCE
              -1.3528547137732704E-09    2.4973909263751882E-07   -1.4654080546995932E-09   -1.1082514364053648E-09
         &END FORCE
       &END NOSE
     &END THERMOSTAT
     &AVERAGES  T
       &RESTART_AVERAGES
         ITIMES_START  1
         AVECPU     3.1354313299436111E+01
         AVEHUGONIOT     0.0000000000000000E+00
         AVETEMP_BARO     0.0000000000000000E+00
         AVEPOT    -8.3065653420631861E+03
         AVEKIN     2.0521751545483244E+00
         AVETEMP     3.0001152169567405E+02
         AVEKIN_QM     0.0000000000000000E+00
         AVETEMP_QM     0.0000000000000000E+00
         AVEVOL     2.1331414786626332E+05
         AVECELL_A     4.8437460238121709E+01
         AVECELL_B     4.6608961231948342E+01
         AVECELL_C     9.4486306644281314E+01
         AVEALPHA     9.0000000000000028E+01
         AVEBETA     9.0000000000000028E+01
         AVEGAMMA     9.0000000000000028E+01
         AVE_ECONS     1.0804613187099334E+00
         AVE_PRESS     0.0000000000000000E+00
         AVE_PXX     0.0000000000000000E+00
       &END RESTART_AVERAGES
     &END AVERAGES
     &PRINT
       &TEMP_KIND  SILENT
       &END TEMP_KIND
     &END PRINT
   &END MD
   &FREE_ENERGY
     &METADYN
       MIN_DISP    -1.0000000000000000E+00
       OLD_HILL_NUMBER  0
       OLD_HILL_STEP  0
       DO_HILLS  F
       STEP_START_VAL  79974
       NHILLS_START_VAL  0
       &METAVAR
         SCALE     1.0000000000000000E+00
         COLVAR  1
       &END METAVAR
       &PRINT
         &COLVAR  SILENT
           COMMON_ITERATION_LEVELS  3
           &EACH
             MD  1
           &END EACH
         &END COLVAR
       &END PRINT
     &END METADYN
   &END FREE_ENERGY
   &CONSTRAINT
     &COLLECTIVE
       COLVAR  1
       INTERMOLECULAR  T
       &RESTRAINT
         K     4.4625385281452931E-04
       &END RESTRAINT
     &END COLLECTIVE
     &COLVAR_RESTART
           2.6456165860399011E+01
     &END COLVAR_RESTART
   &END CONSTRAINT
   &PRINT
     &TRAJECTORY  SILENT
       &EACH
         MD  1
       &END EACH
     &END TRAJECTORY
     &VELOCITIES  SILENT
       &EACH
         MD  1
       &END EACH
     &END VELOCITIES
     &FORCES  SILENT
       UNIT eV*angstrom^-1
       &EACH
         MD  1
       &END EACH
     &END FORCES
     &RESTART  SILENT
       &EACH
         MD  1
       &END EACH
     &END RESTART
     &RESTART_HISTORY  SILENT
       &EACH
         MD  100
       &END EACH
     &END RESTART_HISTORY
   &END PRINT
 &END MOTION
 &FORCE_EVAL
   METHOD  QS
   &DFT
     BASIS_SET_FILE_NAME /users/gtocci/scratch_daint_3000/data_cp2k//BASIS_MOLOPT
     POTENTIAL_FILE_NAME /users/gtocci/scratch_daint_3000/data_cp2k//GTH_POTENTIALS
     WFN_RESTART_FILE_NAME ./GRAS-RESTART.wfn
     CHARGE  -1
     &SCF
       MAX_SCF  10
       EPS_SCF     9.9999999999999995E-07
       SCF_GUESS  RESTART
       &OT  T
         MINIMIZER  DIIS
         PRECONDITIONER  FULL_KINETIC
       &END OT
       &OUTER_SCF  T
         EPS_SCF     9.9999999999999995E-07
         MAX_SCF  30
       &END OUTER_SCF
       &PRINT
         &RESTART  SILENT
           ADD_LAST  NUMERIC
           &EACH
             QS_SCF  50
           &END EACH
         &END RESTART
       &END PRINT
     &END SCF
     &QS
       MAP_CONSISTENT  T
       EXTRAPOLATION  ASPC
       EXTRAPOLATION_ORDER  4
     &END QS
     &MGRID
       NGRIDS  5
       CUTOFF     4.6000000000000000E+02
     &END MGRID
     &XC
       DENSITY_CUTOFF     1.0000000000000000E-10
       GRADIENT_CUTOFF     1.0000000000000000E-10
       TAU_CUTOFF     1.0000000000000000E-10
       &XC_GRID
         XC_DERIV  SPLINE2_SMOOTH
       &END XC_GRID
       &XC_FUNCTIONAL  NO_SHORTCUT
         &LIBXC  T
           FUNCTIONAL XC_GGA_X_OPTB88_VDW
         &END LIBXC
         &VWN  T
         &END VWN
       &END XC_FUNCTIONAL
       &VDW_POTENTIAL
         POTENTIAL_TYPE  NON_LOCAL
         &NON_LOCAL
           TYPE  DRSLL
           VERBOSE_OUTPUT  T
           KERNEL_FILE_NAME /users/gtocci/scratch_daint_3000/data_cp2k//vdW_kernel_table.dat
         &END NON_LOCAL
       &END VDW_POTENTIAL
     &END XC
     &REAL_TIME_PROPAGATION
       INITIAL_WFN  SCF_WFN
     &END REAL_TIME_PROPAGATION
     &PRINT
       &MULLIKEN  SILENT
         FILENAME =GRAS.mulliken
       &END MULLIKEN
     &END PRINT
   &END DFT
   &SUBSYS
     &CELL
       A     2.5632000000000001E+01    0.0000000000000000E+00    0.0000000000000000E+00
       B     0.0000000000000000E+00    2.4664400000000022E+01    0.0000000000000000E+00
       C     0.0000000000000000E+00    0.0000000000000000E+00    5.0000000000000028E+01
       MULTIPLE_UNIT_CELL  1 1 1
     &END CELL
     &COORD
C   -1.7829232204518906E+01   -2.7340860051770726E+00    2.3442173144754128E+00
C   -1.6405237298329354E+01   -2.7645546258400810E+00    2.2961657947105856E+00
C   -1.5666801306285034E+01   -1.5441275483583403E+00    2.3118877747277362E+00
C   -1.4250603625820686E+01   -1.4907484296427473E+00    2.3315724061380161E+00
C   -1.7843422262653018E+01   -2.6889510678962308E-01    2.3826615956525052E+00
C   -1.6409589619310186E+01   -3.2976159207448230E-01    2.2938983782503031E+00
C   -1.5684572290540059E+01    9.2949568373298119E-01    2.2719190749426970E+00
C   -1.4257415777040922E+01    9.6766497432546728E-01    2.3137685532123444E+00
C   -1.7807714926232293E+01    2.1630672389477166E+00    2.3058919622918275E+00
C   -1.6405958432718542E+01    2.1830404238801435E+00    2.2308535850094939E+00
C   -1.5652659895072196E+01    3.4386910911713273E+00    2.2859368276621543E+00
C   -1.4206602316656795E+01    3.4487319524897111E+00    2.3521868014253013E+00
C   -1.7838145850722462E+01    4.5910816452643894E+00    2.1318260963122442E+00
C   -1.6422056453031338E+01    4.6031302482543559E+00    2.1440809399385099E+00
C   -1.5671099907835545E+01    5.8427640323293542E+00    2.1612308361340902E+00
C   -1.4225973253253990E+01    5.8682521448077383E+00    2.2477792528768168E+00
C   -1.7786290896978031E+01    7.0689575881877404E+00    2.0294222665948958E+00
C   -1.6356177155120960E+01    7.0915904258536386E+00    2.0900885630563981E+00
C   -1.5673887989817599E+01   -3.9671669972562165E+00    2.3215470663235602E+00
C   -1.4206677909364350E+01   -3.9842442917057781E+00    2.3577144648358845E+00
C   -1.3535735565656218E+01   -2.7671665609838914E+00    2.3731281848282193E+00
C   -1.2121715582973172E+01   -2.7611695434452859E+00    2.3082261626136820E+00
C   -1.1420570490826361E+01   -1.5303821612468047E+00    2.2104470291594609E+00
C   -9.9801222097447386E+00   -1.5255077617060155E+00    2.1046006191031590E+00
C   -1.3530813550073150E+01   -2.6138607588679080E-01    2.3654098916575217E+00
C   -1.2161136158317957E+01   -2.9479959908913334E-01    2.3103695296520743E+00
C   -1.1458495098035959E+01    9.5601802534937186E-01    2.1993971663754031E+00
C   -1.0032625274717743E+01    9.5167311068654425E-01    2.0279681754463939E+00
C   -1.3528093741900232E+01    2.2221899432735137E+00    2.3214622350521146E+00
C   -1.2134685046671137E+01    2.2262847387855875E+00    2.2980424769527565E+00
C   -1.1368099028007508E+01    3.4201109188272856E+00    2.3153007886263786E+00
C   -1.0010945906763085E+01    3.4285813436203103E+00    2.1862727519470311E+00
C   -1.3473712389301294E+01    4.6869813607934203E+00    2.3051587621652243E+00
C   -1.2070880540069748E+01    4.6707076421048956E+00    2.3842145232852330E+00
C   -1.1402354159780405E+01    5.9134638561619184E+00    2.2387833380622912E+00
C   -9.9573741835305007E+00    5.9004738861831987E+00    2.1909039554025118E+00
C   -1.3497470746155082E+01    7.1547986801853547E+00    2.1604318141667251E+00
C   -1.2070316685746191E+01    7.1481552896302905E+00    2.1598338044880179E+00
C   -1.1429075267116371E+01   -3.9985364525656655E+00    2.2376146706516500E+00
C   -9.9759003974569058E+00   -3.9702335380606244E+00    2.1268256210951120E+00
C   -9.2407760604342393E+00   -2.7652647912425325E+00    2.0552734035999016E+00
C   -7.8148169266444620E+00   -2.7797932189739885E+00    2.0063708296188980E+00
C   -7.1546043283910468E+00   -1.5028763787303192E+00    1.9814417421797710E+00
C   -5.7316153118105353E+00   -1.4869703449524387E+00    2.0613468079466943E+00
C   -9.2846278575371937E+00   -2.8002232772503688E-01    2.0677207923119689E+00
C   -7.8901340874588444E+00   -2.5960718650410602E-01    2.0008086802745519E+00
C   -7.1563336046469939E+00    9.3491186406973859E-01    1.9905650907030545E+00
C   -5.7108150082639391E+00    9.4105201393231819E-01    2.0945915333409575E+00
C   -9.2723534955433884E+00    2.1923196051468006E+00    1.9985448009581219E+00
C   -7.8503970025273997E+00    2.1867044373848477E+00    1.9819260967588592E+00
C   -7.1432703080503472E+00    3.4101445717051266E+00    2.0128595487162837E+00
C   -5.7309946147284467E+00    3.4155138164452721E+00    2.0503932343877280E+00
C   -9.2866421047462886E+00    4.6762630558068841E+00    2.1441246054609846E+00
C   -7.8533193244936923E+00    4.6555334878570278E+00    2.0925027088936781E+00
C   -7.1201715117559967E+00    5.9029318133577551E+00    2.1983206686084493E+00
C   -5.7043912630453333E+00    5.8532218438594361E+00    2.1699029898753577E+00
C   -9.2495063977868490E+00    7.1336727427760938E+00    2.0181639809219081E+00
C   -7.8333495995729523E+00    7.1231713701335835E+00    2.1555736274993356E+00
C   -7.1437465401168927E+00   -4.0089608829791432E+00    2.1353378689744615E+00
C   -5.7310722224187245E+00   -4.0415648168427536E+00    2.0821996582582143E+00
C   -1.7806075920346185E+01    9.5921558988943989E+00    2.1644979026903832E+00
C   -1.6388104460854478E+01    9.5282397051692360E+00    2.0574274891164102E+00
C   -1.5669245024265315E+01    1.0820803789972947E+01    2.0337880920028959E+00
C   -1.4251148751439114E+01    1.0823219270698189E+01    2.0052164511542094E+00
C   -1.7813306651657907E+01    1.2018637193786761E+01    2.2021524586011183E+00
C   -1.6397704243401044E+01    1.2044950756284036E+01    2.1469516481164423E+00
C   -1.5636520573092483E+01    1.3282812021141433E+01    2.1450329493546731E+00
C   -1.4242149343336092E+01    1.3276354447812016E+01    2.0757030136465491E+00
C   -1.7779327137340985E+01    1.4454214338374422E+01    2.2312308713726119E+00
C   -1.6372549976375637E+01    1.4468450616016716E+01    2.2115873056810322E+00
C   -1.5690682125710552E+01    1.5764102759653802E+01    2.1504319329534272E+00
C   -1.4251056782342999E+01    1.5733120447270801E+01    2.0657112663956525E+00
C   -1.7819670545131491E+01    1.6970455551578272E+01    2.1099075323321990E+00
C   -1.6399682055713384E+01    1.6953509153247786E+01    2.0461295875419747E+00
C   -1.5678219243533754E+01    1.8214635955989920E+01    2.1494583202106918E+00
C   -1.4243929143194453E+01    1.8201116025972496E+01    2.1876648428224144E+00
C   -1.7776709087073876E+01    1.9475191961942226E+01    2.1949292406569625E+00
C   -1.6355066144404990E+01    1.9471372428931488E+01    2.2229879915579773E+00
C   -1.5640801338901499E+01    8.3512928379600471E+00    2.0281953734303859E+00
C   -1.4219733993036572E+01    8.3839248669619160E+00    2.1255907987209364E+00
C   -1.3545286033778101E+01    9.6109285470904453E+00    2.0721240679254431E+00
C   -1.2093769103846835E+01    9.5755021453026519E+00    2.0843678668922458E+00
C   -1.1390047069089158E+01    1.0810896346724649E+01    2.0997161487833038E+00
C   -9.9343032478099254E+00    1.0820825914417556E+01    2.0311964677816134E+00
C   -1.3505622461949589E+01    1.2049496783054758E+01    1.9965210680873315E+00
C   -1.2081391431211591E+01    1.2047555109216018E+01    2.0962747361524938E+00
C   -1.1391119088032621E+01    1.3306477506599384E+01    2.0665820603603451E+00
C   -9.9643221631267451E+00    1.3280824633120966E+01    2.0923407106122824E+00
C   -1.3518719349595257E+01    1.4527125462746410E+01    2.1245389691874688E+00
C   -1.2070963666878912E+01    1.4482905794493455E+01    2.1392108288313838E+00
C   -1.1381697918049040E+01    1.5740605980969045E+01    2.1491676127281658E+00
C   -9.9665753791693437E+00    1.5753052527541005E+01    2.1238879738242997E+00
C   -1.3512975580568412E+01    1.6983912096764325E+01    2.0265048994658925E+00
C   -1.2105537049242981E+01    1.6970300200072476E+01    2.1305494373796727E+00
C   -1.1415768283949321E+01    1.8177973064720870E+01    2.2104136918312887E+00
C   -9.9794353535967080E+00    1.8196643328393979E+01    2.2202617630024029E+00
C   -1.3555045691522400E+01    1.9419836856303693E+01    2.2322480110563458E+00
C   -1.2130443847379471E+01    1.9427623513492470E+01    2.2575977801562477E+00
C   -1.1363215757484831E+01    8.4025674733102900E+00    2.0740080148035691E+00
C   -9.9317183724115417E+00    8.3913754258415771E+00    1.9231764578112844E+00
C   -9.2305390409768400E+00    9.6124965830617608E+00    2.0154685309405802E+00
C   -7.8186859378289020E+00    9.5983215538579714E+00    2.0608511177291930E+00
C   -7.1351076272034000E+00    1.0822944533630906E+01    2.0425132291620818E+00
C   -5.7326881568226931E+00    1.0818920059415133E+01    2.0785821462112266E+00
C   -9.2533159464748120E+00    1.2060674082812426E+01    2.0235020382354416E+00
C   -7.8292249165937475E+00    1.2052592791230918E+01    1.9684750125778672E+00
C   -7.0866590829007690E+00    1.3278681671952421E+01    1.9634319892674330E+00
C   -5.6608596276092573E+00    1.3250150259596969E+01    2.0052017577914101E+00
C   -9.2417048643221360E+00    1.4494708750457409E+01    2.0745039531660918E+00
C   -7.7916632712472396E+00    1.4509310698245097E+01    2.0191993583919365E+00
C   -7.0957790695834868E+00    1.5748718971570472E+01    2.0541443265592596E+00
C   -5.6511904215099520E+00    1.5735169976396589E+01    2.0875443500791433E+00
C   -9.2564545638011690E+00    1.6977261896744036E+01    2.1549950018704163E+00
C   -7.8506932364581035E+00    1.6966388467375630E+01    2.0829779286920771E+00
C   -7.1415826142798693E+00    1.8186790676429062E+01    2.0762894975603885E+00
C   -5.7001024894798356E+00    1.8141146217599104E+01    2.0589507079957463E+00
C   -9.2755147452415532E+00    1.9416512416128622E+01    2.1451482835381785E+00
C   -7.8478589574399988E+00    1.9441158339347048E+01    2.0963186288322877E+00
C   -7.1100991340252495E+00    8.3845311263022317E+00    2.1765820710833395E+00
C   -5.6986717289833253E+00    8.3366660854299823E+00    2.1832573668136064E+00
C   -5.0571013531617810E+00   -2.7540069866589931E+00    2.1144979840959679E+00
C   -3.6099354021014105E+00   -2.8044720156690466E+00    2.2234044936155830E+00
C   -2.8520439023265527E+00   -1.5345855697149986E+00    2.2714638193348566E+00
C   -1.4522714709284446E+00   -1.5411705608448305E+00    2.4114621444733166E+00
C   -4.9888948670412265E+00   -2.8462621312867525E-01    2.1466083692274727E+00
C   -3.5774580932752733E+00   -3.0559888396934248E-01    2.2788984716750531E+00
C   -2.8642414885675582E+00    9.3853542428888559E-01    2.3847115451847949E+00
C   -1.4392593373819202E+00    9.3248525098529289E-01    2.3558111955517504E+00
C   -4.9883236468555223E+00    2.1900401160058589E+00    2.1094210850789188E+00
C   -3.5810300542910527E+00    2.1915385267330771E+00    2.2162287504092717E+00
C   -2.8817107255789032E+00    3.3634149858440834E+00    2.1168578261900786E+00
C   -1.4671045205782236E+00    3.3513512865350115E+00    2.0714443716449042E+00
C   -5.0232063188038003E+00    4.6072069290462805E+00    2.0422389660059777E+00
C   -3.5794645770341429E+00    4.6094264846021735E+00    2.1025836240792319E+00
C   -2.8765154118690925E+00    5.8558447137584935E+00    2.1736276062611251E+00
C   -1.5041747626907278E+00    5.8346972934164993E+00    2.1964216567672223E+00
C   -4.9931543357834602E+00    7.0869906371380482E+00    2.2020587233264775E+00
C   -3.5644482083772160E+00    7.1035284866374386E+00    2.1596896894901518E+00
C   -2.9085453619579349E+00   -4.0113981963044942E+00    2.1701146312786208E+00
C   -1.4677111856376421E+00   -3.9838527132042465E+00    2.1892732952795644E+00
C   -7.7086305443436909E-01   -2.7758762433311737E+00    2.3149798525524576E+00
C    6.9034848256772119E-01   -2.7734156699763899E+00    2.3367129938806328E+00
C    1.3814552279733954E+00   -1.5468226114773114E+00    2.3382861897512375E+00
C    2.8161899460652542E+00   -1.5477019613140779E+00    2.3030228046550647E+00
C   -7.0101848999864846E-01   -2.9607652240143567E-01    2.3978440360052158E+00
C    7.2217843670521531E-01   -3.0061675517346237E-01    2.4028886713144582E+00
C    1.3594931979149927E+00    9.3250322648497463E-01    2.4603661894797915E+00
C    2.7865625053038157E+00    9.3873653780425170E-01    2.5096837157463590E+00
C   -7.7586480825075543E-01    2.1637228239627189E+00    2.2169754348011690E+00
C    6.8457711948205957E-01    2.1935272640557733E+00    2.2994032141053387E+00
C    1.4073135754836499E+00    3.3784885167296088E+00    2.1899729091231626E+00
C    2.8142714697932654E+00    3.4024575021411776E+00    2.2795110429062420E+00
C   -7.8671903610717198E-01    4.6225248995185781E+00    2.1379264056806697E+00
C    7.0106194933594246E-01    4.5953497435372332E+00    2.0886230305311395E+00
C    1.4024275749792601E+00    5.8598999048381213E+00    2.0729836508493098E+00
C    2.8475037868297841E+00    5.8420967196168734E+00    2.1092645911438614E+00
C   -7.7769562160503514E-01    7.0674812266286180E+00    2.1749588873429131E+00
C    6.7341976971014428E-01    7.0622999210131452E+00    2.0738249052099857E+00
C    1.4041791799627699E+00   -3.9906300776323471E+00    2.2390158567182814E+00
C    2.8407184780740371E+00   -4.0310964985757476E+00    2.1793854407476436E+00
C    3.5600248929436451E+00   -2.8203376418083628E+00    2.2907939006413671E+00
C    4.9546745680006703E+00   -2.7672809981477671E+00    2.3315325015472776E+00
C    5.6812946524706813E+00   -1.5022915701811508E+00    2.3797952323798328E+00
C    7.0733759634219124E+00   -1.5081740525264651E+00    2.3594072928103369E+00
C    3.5321071444363130E+00   -3.1408731286834674E-01    2.4478638996211339E+00
C    4.9598774002550226E+00   -2.8814258559943190E-01    2.3566415323057850E+00
C    5.6792705734120688E+00    9.6419073668493738E-01    2.2911704058324829E+00
C    7.0959710481909788E+00    9.7134879168468180E-01    2.3164312689363151E+00
C    3.4922328896891881E+00    2.1698443005574042E+00    2.3830907021179288E+00
C    4.9714364206553672E+00    2.1772028078408874E+00    2.2910662299041809E+00
C    5.6523385274806781E+00    3.4437654609191086E+00    2.2776949529287407E+00
C    7.0595921574338414E+00    3.3947873723547626E+00    2.2441742452793312E+00
C    3.5462014705756264E+00    4.6411554588000854E+00    2.2349587640520974E+00
C    4.9709615837407153E+00    4.6711526485614918E+00    2.2300769911916434E+00
C    5.7282290120190043E+00    5.8607929288516836E+00    2.0815087365356288E+00
C    7.1229023886648752E+00    5.8527975541784167E+00    2.1095036223452448E+00
C    3.5341617918960981E+00    7.0841775499989321E+00    2.1435296063405902E+00
C    5.0076746572598925E+00    7.0983677104891942E+00    2.1229034932496083E+00
C    5.7110365517673491E+00   -3.9883123334078427E+00    2.2847504193803068E+00
C    7.1353362560517501E+00   -3.9678018996983537E+00    2.3329845651544208E+00
C   -5.0013501539514786E+00    9.5493703790880673E+00    2.1170964213883896E+00
C   -3.5662660568385203E+00    9.5628940397024493E+00    2.0323650862200524E+00
C   -2.8453985081169337E+00    1.0784369477583903E+01    2.1249619090755569E+00
C   -1.4045148185464524E+00    1.0787847305400467E+01    2.0517927116011863E+00
C   -4.9707499008839529E+00    1.2020222280602054E+01    2.1075146788853045E+00
C   -3.5375071291620146E+00    1.2038120534448682E+01    2.1541230894031069E+00
C   -2.8438912089784782E+00    1.3312688972092165E+01    2.1622891464340772E+00
C   -1.3932769439885164E+00    1.3279780058989122E+01    2.1127886225367116E+00
C   -4.9723187154591084E+00    1.4500509339328783E+01    2.0337930695440263E+00
C   -3.5283224770029902E+00    1.4504632724922175E+01    2.0208102284665133E+00
C   -2.7898601572244752E+00    1.5720626938792595E+01    1.9969564884344633E+00
C   -1.3673021412655597E+00    1.5749860098113896E+01    2.1210436838978390E+00
C   -4.9446159020391143E+00    1.6914785901929420E+01    2.0443798418864390E+00
C   -3.5038763382508340E+00    1.6939717183839136E+01    2.0068029644111456E+00
C   -2.8687643188215208E+00    1.8199869428957264E+01    2.1322393004487825E+00
C   -1.4601182407829751E+00    1.8213809674306052E+01    2.1662852854888328E+00
C   -5.0184179460028444E+00    1.9407700029266888E+01    2.0837180453146384E+00
C   -3.6037833589519521E+00    1.9400817406463439E+01    2.1740351831650591E+00
C   -2.8454738886119690E+00    8.3424557252971709E+00    2.0353597749333234E+00
C   -1.4523898759266944E+00    8.2897781279396483E+00    2.0759631441042194E+00
C   -6.9014585441363829E-01    9.5601594966010328E+00    2.0041188199059805E+00
C    7.2589050053922566E-01    9.5454959365774599E+00    2.1401433121655127E+00
C    1.4268989084961610E+00    1.0755529395599197E+01    2.0988997741742015E+00
C    2.8218457567687740E+00    1.0795849297632126E+01    2.2369161200956058E+00
C   -6.8327723460204071E-01    1.2016646731490194E+01    2.0765751214681885E+00
C    6.9742510770359822E-01    1.2043048205131141E+01    2.0757932829230419E+00
C    1.4339053013789222E+00    1.3285666865964881E+01    2.1187532197840002E+00
C    2.8648408097586824E+00    1.3273058570769484E+01    2.1762812148012940E+00
C   -6.9521937146738444E-01    1.4500761476092325E+01    2.1199803671231705E+00
C    7.6787465514224573E-01    1.4523307244604682E+01    2.1014246742914580E+00
C    1.4935463421246500E+00    1.5765207666184747E+01    2.1557664122844162E+00
C    2.8817790372105865E+00    1.5742003475758906E+01    2.2226940627179510E+00
C   -7.0788783162124014E-01    1.7017459193888726E+01    2.1647364833686296E+00
C    7.3672604392400254E-01    1.6998260475215957E+01    2.1312457622808281E+00
C    1.4322509972713466E+00    1.8254336160256138E+01    2.1542996242322081E+00
C    2.8769961368554169E+00    1.8211219172791786E+01    2.1951547564220109E+00
C   -7.2497211000917894E-01    1.9481961138258811E+01    2.1163776701552552E+00
C    7.0189956901461215E-01    1.9455675117625894E+01    2.1314679300353463E+00
C    1.4105965819055832E+00    8.2848887655209111E+00    2.1588134104533765E+00
C    2.8260546558721127E+00    8.3424781942882138E+00    2.1526379140163101E+00
C    3.5387559515574960E+00    9.5687195802710470E+00    2.2332520725447389E+00
C    4.9691773993730415E+00    9.5674013541772922E+00    2.2578563114925640E+00
C    5.6843816541708714E+00    1.0776800999418102E+01    2.2205410034644562E+00
C    7.0821566948309682E+00    1.0783601353969145E+01    2.1764860087799467E+00
C    3.5642741009698451E+00    1.2023606164112678E+01    2.2280979415321087E+00
C    4.9708799826540293E+00    1.2001997308332022E+01    2.2184866185540097E+00
C    5.7018544578413586E+00    1.3259794675856163E+01    2.2309746005683455E+00
C    7.1033466758151826E+00    1.3276634317729632E+01    2.1736311028040363E+00
C    3.5957121144644528E+00    1.4511924534612112E+01    2.2026066086515175E+00
C    4.9949434139369835E+00    1.4489969786870095E+01    2.1995510342374027E+00
C    5.6944293950175462E+00    1.5718488952877838E+01    2.2329859331851174E+00
C    7.1376078054018564E+00    1.5732102575039923E+01    2.2058924473296009E+00
C    3.5704473295146961E+00    1.6988893850473172E+01    2.2206613402318651E+00
C    5.0109059239315155E+00    1.6987756415687258E+01    2.1830853939902575E+00
C    5.7278015021134712E+00    1.8225100539096211E+01    2.1536880600722514E+00
C    7.1636795500809578E+00    1.8249529437920970E+01    2.0961160943838668E+00
C    3.5657209605978344E+00    1.9428347507353639E+01    2.1288191979504250E+00
C    4.9950536018106186E+00    1.9427000779514316E+01    2.1809889989955371E+00
C    5.7204495095468380E+00    8.3472012439735650E+00    2.1740193603314162E+00
C    7.1407301911837227E+00    8.3415372377864543E+00    2.1339796003245821E+00
O    4.0251635830524020E+02    1.0757641158423314E+02    1.3011082530787814E+01
H    4.0186591168603945E+02    1.0724657575760482E+02    1.3632987251825266E+01
H    4.0203122692460624E+02    1.0841571144868018E+02    1.2658518747348282E+01
O    3.6553881071362161E+02    7.1974286704722005E+01    6.7633442711418086E+00
H    3.6539526807471725E+02    7.1343653774582393E+01    7.5227929790973489E+00
H    3.6568915067007345E+02    7.2859607248944158E+01    7.2244828510461057E+00
O    3.7437042721008606E+02    1.2620259311800450E+02    5.1664118588293215E+00
H    3.7533787477212900E+02    1.2593011057485657E+02    5.0955471990270693E+00
H    3.7420094329385029E+02    1.2605923704660729E+02    6.1426630063640912E+00
O    4.1975438330984957E+02    7.3901674283025784E+01    1.3988082767646583E+01
H    4.2040654782133237E+02    7.3200164863464678E+01    1.4250628015522407E+01
H    4.2034724916725435E+02    7.4658197372789957E+01    1.3746851099679867E+01
O    3.4039466010361912E+02    1.5450689863288466E+02    1.5585362618322915E+01
H    3.4027043066896766E+02    1.5373055342216449E+02    1.5023409058222207E+01
H    3.4141633019609782E+02    1.5450875442277967E+02    1.5565241707858853E+01
O    3.2725718725629605E+02    1.1086852253051921E+02    1.1264277815336801E+01
H    3.2772455863348046E+02    1.1116244158935370E+02    1.2066105172961754E+01
H    3.2628706796376406E+02    1.1050614296029853E+02    1.1476027957690789E+01
O    3.9159586808888315E+02    1.2290825599735504E+02    1.5145369358318385E+01
H    3.9096583873802524E+02    1.2296483601572693E+02    1.4343131281189459E+01
H    3.9252472033986089E+02    1.2326137047618735E+02    1.4881720345306267E+01
O    3.5267098069872452E+02    6.4374009555078572E+01    1.4697955577408749E+01
H    3.5282370930059699E+02    6.5282521910174140E+01    1.5102115788306488E+01
H    3.5179806080099644E+02    6.4518551122884844E+01    1.4195929515705645E+01
O    3.0339766212280398E+02    1.8692454766517096E+02    9.6097542586859159E+00
H    3.0349862737513160E+02    1.8749538381573501E+02    8.7691344083456979E+00
H    3.0260131902924451E+02    1.8724608751479707E+02    1.0055466229928291E+01
O    4.6803410590207420E+02    1.6406745300988044E+02    1.2111705355263773E+01
H    4.6751777649528742E+02    1.6407573965094358E+02    1.2938779229161680E+01
H    4.6833603888099265E+02    1.6496662732499900E+02    1.1908451508800201E+01
O    3.6802533174108459E+02    1.6301167714801036E+02    1.5831656062216675E+01
H    3.6784703810302892E+02    1.6396740495266295E+02    1.5660724512695968E+01
H    3.6778908592258387E+02    1.6281918204548867E+02    1.6775054451395214E+01
O    2.7677142623484025E+02    1.5185795075875421E+02    1.0774544675351976E+01
H    2.7695193853457602E+02    1.5099801895486695E+02    1.0276902843443063E+01
H    2.7595995357098752E+02    1.5217444358270726E+02    1.0348548726407433E+01
O    3.3364099844193316E+02    3.1532891683552901E+01    1.4963525467241240E+01
H    3.3375077483720611E+02    3.2542270613217291E+01    1.5156052438725435E+01
H    3.3322835031532492E+02    3.1559914202441867E+01    1.4067054104273963E+01
O    4.3572656509663119E+02   -3.6645007132375618E+01    8.9709534347036435E+00
H    4.3484512958688072E+02   -3.6669634036520335E+01    9.5335581713665274E+00
H    4.3549416977889462E+02   -3.6430819712507926E+01    8.0506957190110491E+00
O    3.0500053336609500E+02    2.5049963816342500E+02    1.1044663088047630E+01
H    3.0530222960535536E+02    2.5141220600082866E+02    1.0677380003391550E+01
H    3.0402516547050328E+02    2.5061334259667987E+02    1.1205833609157468E+01
O    3.8295088726473665E+02    1.4576926065149709E+02    1.5575781508709092E+01
H    3.8290057702270275E+02    1.4674030090145789E+02    1.5445114985689861E+01
H    3.8395529998478776E+02    1.4562608051943155E+02    1.5249195487397337E+01
O    3.5039493431278214E+02    1.6839145783709054E+02    8.8620434980276137E+00
H    3.4997070979794495E+02    1.6787830611395842E+02    8.1506616676061334E+00
H    3.5059163062663254E+02    1.6774958229958733E+02    9.6107357415306236E+00
O    3.7877330519845373E+02    5.6422263662525303E+01    1.6747505583697649E+01
H    3.7812154202734064E+02    5.5676446852476268E+01    1.6655176570362460E+01
H    3.7939329609834266E+02    5.6082004010351170E+01    1.6053937007179961E+01
O    2.8827770138122082E+02    1.1086408935009837E+02    1.8898358327207820E+01
H    2.8883702301102966E+02    1.1030733859183624E+02    1.9466974957962996E+01