 # Version information for this restart file 
 # current date 2020-01-19 14:05:26.800
 # current working dir /scratch/snx3000/gtocci/gtocci/MEMBRANES/AIMD_US_IONS_BN/aimd_us_iodide/us_18
 # Program compiled at                              Fri Nov 22 15:19:42 CET 2019
 # Program compiled on                                                  daint102
 # Program compiled for                                   CRAY_XC50-gfortran_gpu
 # Source code revision number                                       git:a698b45
 &GLOBAL
   PRINT_LEVEL  LOW
   PROJECT_NAME BNS
   RUN_TYPE  MD
   WALLTIME 86400
 &END GLOBAL
 &MOTION
   &MD
     ENSEMBLE  NVT
     STEPS  2000
     TIMESTEP     9.9999999999999989E-01
     STEP_START_VAL  42812
     TIME_START_VAL     4.2811999999987886E+04
     ECONS_START_VAL    -8.4829644862189780E+03
     TEMPERATURE     3.0000000000000000E+02
     TEMP_KIND  T
     &BAROSTAT
       PRESSURE     1.0000000000000000E+00
       TIMECON     9.9999999999999986E+01
       VIRIAL  Z
     &END BAROSTAT
     &THERMOSTAT
       TYPE  NOSE
       REGION  GLOBAL
       &NOSE
         LENGTH  4
         TIMECON     9.9999999999999986E+01
         MTS  2
         &COORD
               3.0558364709009378E-01    7.1883120149128399E-02    1.0358490056308804E+01   -5.2434704918337731E+00
         &END COORD
         &VELOCITY
              -8.5367082369803142E-06    4.0800635236392106E-04    1.9407177832118688E-04    2.5812493935025045E-04
         &END VELOCITY
         &MASS
               7.0145132684705392E+07    1.6237299232570693E+04    1.6237299232570693E+04    1.6237299232570693E+04
         &END MASS
         &FORCE
               3.3812829215299566E-10    2.5631166025066991E-07    1.0795916971920704E-07   -2.0846158709357166E-08
         &END FORCE
       &END NOSE
     &END THERMOSTAT
     &AVERAGES  T
       &RESTART_AVERAGES
         ITIMES_START  1
         AVECPU     2.4275354394946916E+01
         AVEHUGONIOT     0.0000000000000000E+00
         AVETEMP_BARO     0.0000000000000000E+00
         AVEPOT    -8.4857812212724693E+03
         AVEKIN     2.0512525161415547E+00
         AVETEMP     2.9987663937251534E+02
         AVEKIN_QM     0.0000000000000000E+00
         AVETEMP_QM     0.0000000000000000E+00
         AVEVOL     2.2086622704881203E+05
         AVECELL_A     4.9287836997924956E+01
         AVECELL_B     4.7426456757032106E+01
         AVECELL_C     9.4486306644279694E+01
         AVEALPHA     9.0000000000000000E+01
         AVEBETA     9.0000000000000000E+01
         AVEGAMMA     9.0000000000000000E+01
         AVE_ECONS     4.9419908826378077E+01
         AVE_PRESS     0.0000000000000000E+00
         AVE_PXX     0.0000000000000000E+00
       &END RESTART_AVERAGES
     &END AVERAGES
     &PRINT
       &TEMP_KIND  SILENT
       &END TEMP_KIND
     &END PRINT
   &END MD
   &FREE_ENERGY
     &METADYN
       MIN_DISP    -1.0000000000000000E+00
       OLD_HILL_NUMBER  0
       OLD_HILL_STEP  0
       DO_HILLS  F
       STEP_START_VAL  42812
       NHILLS_START_VAL  0
       &METAVAR
         SCALE     1.0000000000000000E+00
         COLVAR  1
       &END METAVAR
       &PRINT
         &COLVAR  SILENT
           COMMON_ITERATION_LEVELS  3
           &EACH
             MD  1
           &END EACH
         &END COLVAR
       &END PRINT
     &END METADYN
   &END FREE_ENERGY
   &CONSTRAINT
     &COLLECTIVE
       COLVAR  1
       INTERMOLECULAR  T
       &RESTRAINT
         K     4.4625385281452931E-04
       &END RESTRAINT
     &END COLLECTIVE
     &COLVAR_RESTART
           1.7229868939923008E+01
     &END COLVAR_RESTART
   &END CONSTRAINT
   &PRINT
     &TRAJECTORY  SILENT
       &EACH
         MD  1
       &END EACH
     &END TRAJECTORY
     &VELOCITIES  SILENT
       &EACH
         MD  1
       &END EACH
     &END VELOCITIES
     &FORCES  SILENT
       UNIT eV*angstrom^-1
       &EACH
         MD  1
       &END EACH
     &END FORCES
     &RESTART  SILENT
       &EACH
         MD  1
       &END EACH
     &END RESTART
     &RESTART_HISTORY  SILENT
       &EACH
         MD  100
       &END EACH
     &END RESTART_HISTORY
   &END PRINT
 &END MOTION
 &FORCE_EVAL
   METHOD  QS
   &DFT
     BASIS_SET_FILE_NAME /users/gtocci/scratch_daint_3000/data_cp2k//BASIS_MOLOPT
     POTENTIAL_FILE_NAME /users/gtocci/scratch_daint_3000/data_cp2k//GTH_POTENTIALS
     WFN_RESTART_FILE_NAME ./BNS-RESTART.wfn
     CHARGE  -1
     &SCF
       MAX_SCF  10
       EPS_SCF     9.9999999999999995E-07
       SCF_GUESS  RESTART
       &OT  T
         MINIMIZER  DIIS
         PRECONDITIONER  FULL_KINETIC
       &END OT
       &OUTER_SCF  T
         EPS_SCF     9.9999999999999995E-07
         MAX_SCF  30
       &END OUTER_SCF
       &PRINT
         &RESTART  SILENT
           ADD_LAST  NUMERIC
           &EACH
             QS_SCF  50
           &END EACH
         &END RESTART
       &END PRINT
     &END SCF
     &QS
       MAP_CONSISTENT  T
       EXTRAPOLATION  ASPC
       EXTRAPOLATION_ORDER  4
     &END QS
     &MGRID
       NGRIDS  5
       CUTOFF     4.6000000000000000E+02
     &END MGRID
     &XC
       DENSITY_CUTOFF     1.0000000000000000E-10
       GRADIENT_CUTOFF     1.0000000000000000E-10
       TAU_CUTOFF     1.0000000000000000E-10
       &XC_GRID
         XC_DERIV  SPLINE2_SMOOTH
       &END XC_GRID
       &XC_FUNCTIONAL  NO_SHORTCUT
         &LIBXC  T
           FUNCTIONAL XC_GGA_X_OPTB88_VDW
         &END LIBXC
         &VWN  T
         &END VWN
       &END XC_FUNCTIONAL
       &VDW_POTENTIAL
         POTENTIAL_TYPE  NON_LOCAL
         &NON_LOCAL
           TYPE  DRSLL
           VERBOSE_OUTPUT  T
           KERNEL_FILE_NAME /users/gtocci/scratch_daint_3000/data_cp2k//vdW_kernel_table.dat
           CUTOFF     3.6000000000000000E+02
         &END NON_LOCAL
       &END VDW_POTENTIAL
     &END XC
     &REAL_TIME_PROPAGATION
       INITIAL_WFN  SCF_WFN
     &END REAL_TIME_PROPAGATION
     &PRINT
       &MULLIKEN  SILENT
         FILENAME =BNS.mulliken
       &END MULLIKEN
     &END PRINT
   &END DFT
   &SUBSYS
     &CELL
       A     2.6082000000000019E+01    0.0000000000000000E+00    0.0000000000000000E+00
       B     0.0000000000000000E+00    2.5097000000000001E+01    0.0000000000000000E+00
       C     0.0000000000000000E+00    0.0000000000000000E+00    5.0000000000000028E+01
       MULTIPLE_UNIT_CELL  1 1 1
     &END CELL
     &COORD
B   -8.7416531414727086E+00    6.5468251255319174E+00   -2.7785007591364927E+01
B   -6.5221925055711063E+00    7.7996351904411405E+00   -2.7818123837605111E+01
B   -8.6733791393543367E+00    9.0840015349486798E+00   -2.7868260760724251E+01
B   -6.5718485163486999E+00    1.0359071000702615E+01   -2.7865566218443451E+01
B   -8.6639667371698543E+00    1.1615088689427907E+01   -2.7711696480788419E+01
B   -6.5633967850071198E+00    1.2830806347801065E+01   -2.7853928733825960E+01
B   -8.7320337447442977E+00    1.4143298950924352E+01   -2.7946312451187719E+01
B   -6.5029276219954424E+00    1.5381807462648421E+01   -2.7863064621920035E+01
B   -8.6687903355204607E+00    1.6588458222007056E+01   -2.7960042677830405E+01
B   -6.5826506641385452E+00    1.7849380277849104E+01   -2.7874821406898505E+01
B   -4.4095741021477437E+00    6.5708850120791187E+00   -2.8035468539232735E+01
B   -2.2743902538324106E+00    7.8205119716537936E+00   -2.8066893280006418E+01
B   -4.4368652836725575E+00    9.1100191544929991E+00   -2.7980394936734115E+01
B   -2.2643130787354444E+00    1.0377448561848238E+01   -2.8141177808212870E+01
B   -4.3919560048412469E+00    1.1584901688270604E+01   -2.8069266452032799E+01
B   -2.2395720015941585E+00    1.2893954728686685E+01   -2.7941275567809793E+01
B   -4.3805865380744491E+00    1.4100807570085484E+01   -2.7948215153704407E+01
B   -2.1776644466475914E+00    1.5399286984225936E+01   -2.8054297281268411E+01
B   -4.4128307301713896E+00    1.6620846424705334E+01   -2.7884088730850600E+01
B   -2.1618220546369340E+00    1.7896438934467042E+01   -2.8241677481816136E+01
B   -8.6989505794889593E-02    6.5389459415577926E+00   -2.8216959878406556E+01
B    2.0495629567115352E+00    7.7912908992750474E+00   -2.8234738944850694E+01
B   -1.0957261499694325E-01    9.0620628959262852E+00   -2.8056479582348953E+01
B    2.0858163252813191E+00    1.0316761262724928E+01   -2.8038481695181520E+01
B   -7.1321762991897145E-02    1.1536038583674285E+01   -2.8028328176445239E+01
B    2.1053043099258195E+00    1.2806677284358367E+01   -2.8126092999801337E+01
B    3.7328459259681611E-04    1.4089646713002979E+01   -2.8048234859194750E+01
B    2.1538559826576518E+00    1.5383265724721268E+01   -2.8263897387525578E+01
B   -3.3874530035910122E-02    1.6582459993438512E+01   -2.8238093369261563E+01
B    2.1871501840678031E+00    1.7840485799959509E+01   -2.8162888313237303E+01
N   -7.2806509227567640E+00    6.5739608834192733E+00   -2.7846173315220646E+01
N   -5.1098661529384719E+00    7.8133637380608159E+00   -2.7860695184982863E+01
N   -7.2582960275745911E+00    9.0543168621264289E+00   -2.7921112480125714E+01
N   -5.1183744621169440E+00    1.0348525936013273E+01   -2.7938734674089570E+01
N   -7.2368863364769096E+00    1.1576746417602518E+01   -2.7733416282219700E+01
N   -5.1298041243619901E+00    1.2844797346271781E+01   -2.8050654672115265E+01
N   -7.2713024207905841E+00    1.4121484904710229E+01   -2.7959650418838663E+01
N   -5.0835769135140794E+00    1.5365154900476785E+01   -2.7819712081206241E+01
N   -7.2336707149361734E+00    1.6593049870772745E+01   -2.7798970342972275E+01
N   -5.0790228493011451E+00    1.7881075862971578E+01   -2.7963886773476730E+01
N   -2.9491611691393342E+00    6.5587631578338677E+00   -2.7999632387960119E+01
N   -8.5007419959710462E-01    7.8064162017710057E+00   -2.8119813515134013E+01
N   -3.0022392034982173E+00    9.1074039994586435E+00   -2.8088577579224133E+01
N   -8.0675805643737231E-01    1.0319260289565335E+01   -2.8083421954854035E+01
N   -2.9275924508996911E+00    1.1607176238472587E+01   -2.8042830491557407E+01
N   -7.4557441929941370E-01    1.2866951128610275E+01   -2.7958878439470936E+01
N   -2.9319766499816851E+00    1.4110802707113768E+01   -2.7883118213216331E+01
N   -7.8855183318329447E-01    1.5316865086032706E+01   -2.8174252534549737E+01
N   -2.9390786067318251E+00    1.6619046034373302E+01   -2.7981280309649559E+01
N   -7.3912255466041576E-01    1.7852962450357229E+01   -2.8295703660823371E+01
N    1.3700802975315227E+00    6.5521570943984164E+00   -2.8271666815360888E+01
N    3.4794844666254967E+00    7.8430308260329422E+00   -2.8280648000638472E+01
N    1.3014685769304657E+00    9.0567144371617463E+00   -2.8154073578886827E+01
N    3.4876499242453116E+00    1.0315058129732130E+01   -2.8130634758076624E+01
N    1.3884770482564532E+00    1.1576809897923646E+01   -2.8016714962963157E+01
N    3.5310288347592569E+00    1.2834030306535119E+01   -2.8114426583587171E+01
N    1.4348604503192204E+00    1.4136498664795823E+01   -2.8124400142075249E+01
N    3.5604204600038862E+00    1.5364832473733154E+01   -2.8184379814924370E+01
N    1.4448889671275091E+00    1.6632451488664429E+01   -2.8245131921102868E+01
N    3.6183620834891261E+00    1.7848814099040379E+01   -2.8208007687655460E+01
B   -8.6879474835764725E+00    1.9114438548501298E+01   -2.7970258650338700E+01
B   -6.4816832803420033E+00    2.0331733781469289E+01   -2.7929667009756120E+01
B   -8.6928441250391515E+00    2.1660590017319919E+01   -2.8032879820242780E+01
B   -6.5383354882400804E+00    2.2837577904230187E+01   -2.8141882677875092E+01
B   -8.7161224018385361E+00    2.4187474055871892E+01   -2.8143481102545298E+01
B   -6.5750045002283466E+00    2.5361882128537030E+01   -2.8077533073917895E+01
B   -8.7375245128462531E+00    2.6647126142417441E+01   -2.8068651782271832E+01
B   -6.5895874037769966E+00    2.7856649276009520E+01   -2.7837979745001899E+01
B   -8.7320329255021019E+00    2.9143550579475640E+01   -2.7830967157578527E+01
B   -6.5541134202129934E+00    3.0375545758216258E+01   -2.7846862516480499E+01
B   -4.3124131414524269E+00    1.9154003192019818E+01   -2.8043196790037594E+01
B   -2.1421087586437686E+00    2.0425162437798679E+01   -2.8353751539771299E+01
B   -4.3610988264401342E+00    2.1661949327074616E+01   -2.8179268600089486E+01
B   -2.1555835958125513E+00    2.2859783244814619E+01   -2.8421910135908632E+01
B   -4.3607860441994211E+00    2.4164064486556121E+01   -2.8264840601062808E+01
B   -2.2308908774045944E+00    2.5417225250379161E+01   -2.8322974151574225E+01
B   -4.3781042318476278E+00    2.6637965215207068E+01   -2.8170684355608863E+01
B   -2.2290115587671369E+00    2.7930113248968002E+01   -2.8152992434380561E+01
B   -4.4566423743699559E+00    2.9176236823316842E+01   -2.8148193187861022E+01
B   -2.2580585208664630E+00    3.0423562496416483E+01   -2.8052394502603629E+01
B    3.8607867100322484E-03    1.9076822273358797E+01   -2.8378488620294227E+01
B    2.2060608167431188E+00    2.0363418617520484E+01   -2.8337050709174921E+01
B    3.0233556934551788E-02    2.1578082904669571E+01   -2.8439928321754614E+01
B    2.0803229232825480E+00    2.2851655960052067E+01   -2.8481349996970536E+01
B   -5.4106369157885255E-02    2.4128693491328423E+01   -2.8395681859341881E+01
B    2.1616774140040906E+00    2.5351711364045084E+01   -2.8396824085102516E+01
B   -8.3218924845699302E-02    2.6622563018532173E+01   -2.8133872635581227E+01
B    2.1066848945519565E+00    2.7917474427653605E+01   -2.8245274220771133E+01
B   -7.8758160704650207E-02    2.9103608731150036E+01   -2.8145490988434435E+01
B    2.0797356044525128E+00    3.0397505431522795E+01   -2.8203138611898687E+01
N   -7.2405191713124841E+00    1.9078034399302712E+01   -2.7897552320055645E+01
N   -5.0701492099920200E+00    2.0395594188306092E+01   -2.7992429570290923E+01
N   -7.2497305142265649E+00    2.1577192448224704E+01   -2.8100312860055812E+01
N   -5.0774475409929360E+00    2.2887370487260185E+01   -2.8210011940577580E+01
N   -7.3050238038460655E+00    2.4093872791224246E+01   -2.8096054855194694E+01
N   -5.1275503736551702E+00    2.5396321657851161E+01   -2.8178863691642686E+01
N   -7.2652672803649070E+00    2.6650297172939339E+01   -2.7962194442350484E+01
N   -5.1305292751005220E+00    2.7900160464298214E+01   -2.8028123517350721E+01
N   -7.2504252191531862E+00    2.9124785836123774E+01   -2.7648015876150808E+01
N   -5.1326224571796812E+00    3.0444509788379872E+01   -2.8039356550432359E+01
N   -2.8689166024472046E+00    1.9184018456773799E+01   -2.8219412135427355E+01
N   -7.0704174489239346E-01    2.0364315919792389E+01   -2.8399795952422654E+01
N   -2.8736191020064399E+00    2.1652653512900983E+01   -2.8257714252547125E+01
N   -7.5186392220902298E-01    2.2865555420703910E+01   -2.8543765961979087E+01
N   -2.9029574942408627E+00    2.4147613657767785E+01   -2.8451026609986219E+01
N   -7.6681126613783446E-01    2.5369623022492092E+01   -2.8249944633497222E+01
N   -2.9531042255144917E+00    2.6678268997220112E+01   -2.8273079820460559E+01
N   -8.1526052513813330E-01    2.7863581558090988E+01   -2.8027674149958212E+01
N   -2.9964717159560461E+00    2.9168914929104506E+01   -2.8086902790438085E+01
N   -7.8036166503686166E-01    3.0374357141651966E+01   -2.8118293534080333E+01
N    1.4621333463410344E+00    1.9099322620116371E+01   -2.8302975628798105E+01
N    3.6278590175879586E+00    2.0385776601032795E+01   -2.8431856651807632E+01
N    1.4641086772595489E+00    2.1587938626488565E+01   -2.8451163668031842E+01
N    3.5462217165469769E+00    2.2865402557989142E+01   -2.8347922233434847E+01
N    1.3818661861771766E+00    2.4126883121939951E+01   -2.8461766704665301E+01
N    3.6360267735057570E+00    2.5365733198061264E+01   -2.8488873283912792E+01
N    1.3991734698343377E+00    2.6624325642158105E+01   -2.8219219778633303E+01
N    3.5788455061385833E+00    2.7884093670271742E+01   -2.8306863988347214E+01
N    1.3431063044452201E+00    2.9124071145944505E+01   -2.8284153986266283E+01
N    3.5375710569757324E+00    3.0396683127185298E+01   -2.8249123005149677E+01
B    4.2959233300387414E+00    6.5524736707497073E+00   -2.8273470947121151E+01
B    6.4874738098007469E+00    7.8287256718471614E+00   -2.8275226320952072E+01
B    4.2216362447541256E+00    9.0916426006709994E+00   -2.8322697902720190E+01
B    6.4397867206587485E+00    1.0314842512115133E+01   -2.8054365691797813E+01
B    4.2737057463959403E+00    1.1585520324564436E+01   -2.8066177871433652E+01
B    6.4843569915182586E+00    1.2822894267804944E+01   -2.7984456926552351E+01
B    4.2618413510817579E+00    1.4093255912089445E+01   -2.8123624879532276E+01
B    6.4745359191598411E+00    1.5313751921138701E+01   -2.8069351548365155E+01
B    4.3104033198922398E+00    1.6568063431301354E+01   -2.8223622037957050E+01
B    6.4613347633711538E+00    1.7795254117355444E+01   -2.8278450931188551E+01
B    8.6384724506276225E+00    6.5643022659264734E+00   -2.8201789214790509E+01
B    1.0825076939768101E+01    7.8818148384929723E+00   -2.7970650872824333E+01
B    8.6511279730260586E+00    9.1107820880639636E+00   -2.8015986170429017E+01
B    1.0835353531797869E+01    1.0352036386889141E+01   -2.7872619256314671E+01
B    8.6316491367652475E+00    1.1593352765164354E+01   -2.7739004085793120E+01
B    1.0891077885915132E+01    1.2866202688286588E+01   -2.7819787008505511E+01
B    8.6633940884974958E+00    1.4112542309207750E+01   -2.7867284034239930E+01
B    1.0894480608672362E+01    1.5315280560234880E+01   -2.7873740396162535E+01
B    8.7142748398399306E+00    1.6575498913217736E+01   -2.7965084774764129E+01
B    1.0875179867817836E+01    1.7892508393720615E+01   -2.7952070110265804E+01
B    1.3021762696057632E+01    6.5607410463738693E+00   -2.8022150261755868E+01
B    1.5176788364435074E+01    7.8151483274235041E+00   -2.7782354333258120E+01
B    1.3022655688635801E+01    9.0821356890898546E+00   -2.7857268319034610E+01
B    1.5247538086250833E+01    1.0323146238323483E+01   -2.7678482329090681E+01
B    1.3067818944928772E+01    1.1584381213770133E+01   -2.7702840828825014E+01
B    1.5262826231669948E+01    1.2809771903539783E+01   -2.7694361055478080E+01
B    1.3067593337405228E+01    1.4069483166155381E+01   -2.7942398750124529E+01
B    1.5251532795405645E+01    1.5371423852405703E+01   -2.7972390127475663E+01
B    1.3047673964480923E+01    1.6558166689036202E+01   -2.7923674104478746E+01
B    1.5263920866164090E+01    1.7884023017669723E+01   -2.8011993158289648E+01
N    5.7069506187817316E+00    6.5747329376299986E+00   -2.8415686837842046E+01
N    7.9156884772882288E+00    7.7933853158910784E+00   -2.8171630187058884E+01
N    5.6892309127543674E+00    9.0733886278920739E+00   -2.8215408562665896E+01
N    7.9040106108653632E+00    1.0344899544116673E+01   -2.7963716744068218E+01
N    5.7108004521549773E+00    1.1584827044188325E+01   -2.8025794022702023E+01
N    7.9508256009606617E+00    1.2829635249790995E+01   -2.7729022230205143E+01
N    5.7158903211554950E+00    1.4062457853440065E+01   -2.8079376874167330E+01
N    7.9667058381435378E+00    1.5335928712677413E+01   -2.7995618068189639E+01
N    5.7552967972723836E+00    1.6541606708009589E+01   -2.8220852849186699E+01
N    7.9288951137201185E+00    1.7821747684269550E+01   -2.8184438897972022E+01
N    1.0086879104947796E+01    6.6004021261418817E+00   -2.7964708736971701E+01
N    1.2301262200039433E+01    7.8306664707568387E+00   -2.7999769581060569E+01
N    1.0053090386429965E+01    9.1092001983626911E+00   -2.7859596487390004E+01
N    1.2338932222557634E+01    1.0316377903553834E+01   -2.7857462343855239E+01
N    1.0148452823627666E+01    1.1603973004747296E+01   -2.7720012682704244E+01
N    1.2343690445247653E+01    1.2839556570077534E+01   -2.7858047868821156E+01
N    1.0171989729500400E+01    1.4069065530600017E+01   -2.7867392116061414E+01
N    1.2380391575683221E+01    1.5344332095274867E+01   -2.8059031571312950E+01
N    1.0175630469566974E+01    1.6610472824467053E+01   -2.7840527640802165E+01
N    1.2359157231717704E+01    1.7833258589008473E+01   -2.7877003718847828E+01
N    1.4466751767550269E+01    6.5763444686033052E+00   -2.7948898501444461E+01
N    1.6614402093242319E+01    7.7830455504666727E+00   -2.7685885742878948E+01
N    1.4465058743881338E+01    9.1058081151955559E+00   -2.7822893324707387E+01
N    1.6683027113456802E+01    1.0290155253180103E+01   -2.7755761516220513E+01
N    1.4508145831343144E+01    1.1588002006292619E+01   -2.7584254801125287E+01
N    1.6654434146876461E+01    1.2868830959744605E+01   -2.7812659024641775E+01
N    1.4528601253676163E+01    1.4078038066052613E+01   -2.7937308466125099E+01
N    1.6659702941758486E+01    1.5417946760498952E+01   -2.7972718755677693E+01
N    1.4483341433111866E+01    1.6637240896147567E+01   -2.8007299952503917E+01
N    1.6682552360873299E+01    1.7878050158098574E+01   -2.8063511394679168E+01
B    4.3610494845949086E+00    1.9129404225438421E+01   -2.8390445816563492E+01
B    6.5163866539858510E+00    2.0356903838556114E+01   -2.8357642579461771E+01
B    4.3309393202826874E+00    2.1672894268552330E+01   -2.8388625339755858E+01
B    6.5370603412228876E+00    2.2861837051038084E+01   -2.8368769279594485E+01
B    4.3386818428713863E+00    2.4138563743869202E+01   -2.8500567660002599E+01
B    6.5207996316935439E+00    2.5346539438871304E+01   -2.8414650076570620E+01
B    4.3399481423051887E+00    2.6633604806362719E+01   -2.8355029957475605E+01
B    6.4530729487161222E+00    2.7868907973770064E+01   -2.8363460034016057E+01
B    4.2913453433012556E+00    2.9147542189390109E+01   -2.8381885435499061E+01
B    6.5011210383154134E+00    3.0369009917903387E+01   -2.8319282818173896E+01
B    8.6642459376728365E+00    1.9028200209166247E+01   -2.8312875118182134E+01
B    1.0883832872289851E+01    2.0350248663435742E+01   -2.8218220123458138E+01
B    8.6991936358258855E+00    2.1551946556239496E+01   -2.8496091906887255E+01
B    1.0910480347209164E+01    2.2885749906270572E+01   -2.8580646302850543E+01
B    8.6788766443116483E+00    2.4125704440009873E+01   -2.8593212328710560E+01
B    1.0824881039646112E+01    2.5412204331414582E+01   -2.8415811903685096E+01
B    8.6293131134221674E+00    2.6591867983188266E+01   -2.8383124872676472E+01
B    1.0830573568988459E+01    2.7859257532962623E+01   -2.8239710248543698E+01
B    8.6947280039601562E+00    2.9173635689069179E+01   -2.8312911044373998E+01
B    1.0840532574931640E+01    3.0405697470436923E+01   -2.8049383568727748E+01
B    1.3084221772873358E+01    1.9093254648346903E+01   -2.7901163024176139E+01
B    1.5218302824741954E+01    2.0406781905546381E+01   -2.7900015969195518E+01
B    1.2951398422351414E+01    2.1680978905667775E+01   -2.8231014250367263E+01
B    1.5160991300681292E+01    2.2884003765880269E+01   -2.8172536747074474E+01
B    1.3063464748548427E+01    2.4121983070211819E+01   -2.8245803717038328E+01
B    1.5173377193957643E+01    2.5408021082386476E+01   -2.8273922536075077E+01
B    1.2997129689114628E+01    2.6661255453297869E+01   -2.8140815522172893E+01
B    1.5197325767570439E+01    2.7971158156217566E+01   -2.8089984982428881E+01
B    1.2961673020464612E+01    2.9126089619188875E+01   -2.8083234023941600E+01
B    1.5208923779663030E+01    3.0408479459160169E+01   -2.7933406852073801E+01
N    5.7757124926613619E+00    1.9124688168836311E+01   -2.8473769163408303E+01
N    7.9502477678538970E+00    2.0321067939720066E+01   -2.8391297026441940E+01
N    5.7852143891671615E+00    2.1625244562191416E+01   -2.8257411206071616E+01
N    7.9578304701947866E+00    2.2839098078099710E+01   -2.8526653457538167E+01
N    5.7822034889389595E+00    2.4092932904960509E+01   -2.8420784747555032E+01
N    7.9415437482219460E+00    2.5383993428841890E+01   -2.8550522959304448E+01
N    5.7754728340319188E+00    2.6586920211614938E+01   -2.8268798333930015E+01
N    7.9561348853605285E+00    2.7877030740895965E+01   -2.8376645897710180E+01
N    5.7298745618121654E+00    2.9128237108028486E+01   -2.8370887240698686E+01
N    7.9073317552470535E+00    3.0399416555394442E+01   -2.8311260860884534E+01
N    1.0141777700592799E+01    1.9108362655697452E+01   -2.8166098945934998E+01
N    1.2308779363082246E+01    2.0369209387180881E+01   -2.8062558929313138E+01
N    1.0174986598526717E+01    2.1599735990427170E+01   -2.8645530607325068E+01
N    1.2312225869425204E+01    2.2905483525725355E+01   -2.8304896578699285E+01
N    1.0128979258474908E+01    2.4163056927263806E+01   -2.8614698751877697E+01
N    1.2270975303402851E+01    2.5405594184661609E+01   -2.8205828540812352E+01
N    1.0073325882723410E+01    2.6597838798663982E+01   -2.8217693223866842E+01
N    1.2224866606498082E+01    2.7840470520579611E+01   -2.8093641507704071E+01
N    1.0125050125418438E+01    2.9128923767133202E+01   -2.8241553541578241E+01
N    1.2253936180629106E+01    3.0400478618690340E+01   -2.8133599278635010E+01
N    1.4525706721929216E+01    1.9110778379071981E+01   -2.7877608520925563E+01
N    1.6652653184114246E+01    2.0416790218256764E+01   -2.7888517175767760E+01
N    1.4417688957606803E+01    2.1656075389470047E+01   -2.8056306192618482E+01
N    1.6621390178196840E+01    2.2900679078657724E+01   -2.8115916142980069E+01
N    1.4423472349713414E+01    2.4174657849497027E+01   -2.8244965587908446E+01
N    1.6631382681914104E+01    2.5422734270983991E+01   -2.8286679015124299E+01
N    1.4456743450270915E+01    2.6686747306201891E+01   -2.8115172547576812E+01
N    1.6643114706812860E+01    2.7932600313419123E+01   -2.8070344859079920E+01
N    1.4451386223113802E+01    2.9147203084116885E+01   -2.8080316521686623E+01
N    1.6610958482728567E+01    3.0407319427844790E+01   -2.7766557679543805E+01
O   -5.6370356907810837E+01    3.6686254385372159E+01   -1.4524881916298153E+01
H   -5.5893982078267442E+01    3.6567369138627214E+01   -1.5333711143499574E+01
H   -5.5692236988513493E+01    3.6925460547574104E+01   -1.3842217361436557E+01
O   -1.9327408062736344E+00    2.3657398990418333E+01   -2.5448066489417940E+01
H   -1.4713545119626750E+00    2.4510394802369145E+01   -2.5330084264365293E+01
H   -2.1672346298108902E+00    2.3470590734307493E+01   -2.4474293334782921E+01
O    2.2565347363696066E+01    5.2718672722135416E+01   -2.4770068301963789E+01
H    2.2566881910453887E+01    5.3655221424218340E+01   -2.4710442029387707E+01
H    2.3474154261761260E+01    5.2434966253298079E+01   -2.5071026491097694E+01
O    4.9761419041883748E+01    1.4791698349888499E+01   -2.2036411720686409E+01
H    4.9003899364697695E+01    1.4161673409116034E+01   -2.1925327169293450E+01
H    4.9664630527124437E+01    1.5409720231526933E+01   -2.1263938742647607E+01
O    3.7637360509912057E+01    3.2808615794648105E+01   -1.4851933999506768E+01
H    3.6890947371924561E+01    3.2355896508811483E+01   -1.4469060188322677E+01
H    3.7098665221429698E+01    3.3675652762132010E+01   -1.5112813842485174E+01
O    2.2955739689265741E+01    5.6755682938371033E+00   -2.1245082144114633E+01
H    2.3881114975872077E+01    5.7306108830035587E+00   -2.0966305344593835E+01
H    2.2559815098225137E+01    5.2974026359897701E+00   -2.0402707356371298E+01
O    4.6825240664389682E+01    6.0612295781496286E+01   -2.0199360710751034E+01
H    4.7769768997072376E+01    6.0886693873562024E+01   -2.0366996494901439E+01
H    4.6634437326273719E+01    6.0532370529379328E+01   -1.9264925820793955E+01
O    5.2700573015282224E+01   -1.5851164010157408E+01   -1.0454264837050797E+01
H    5.2573081318016193E+01   -1.4871859234164337E+01   -1.0288763112216246E+01
H    5.1785698664229145E+01   -1.6233947275262299E+01   -1.0392420577353148E+01
O    8.7925141110308971E+01    8.8419193436438078E+01   -1.8517804948226146E+01
H    8.8102672714580791E+01    8.8419429819081444E+01   -1.9464263170280773E+01
H    8.7898236696334067E+01    8.7549313984180998E+01   -1.8073507085943021E+01
O    3.1431346016245605E+01    4.1313205560386557E+01   -1.6184722913505176E+01
H    3.2278113987481980E+01    4.1141214561577627E+01   -1.5623274593985599E+01
H    3.1513538017135467E+01    4.1018220308778652E+01   -1.7145089392422051E+01
O    5.6268372715317732E+01    5.2028143297792404E+01   -2.5131086088294911E+01
H    5.6284864148210168E+01    5.2134707755735668E+01   -2.4142437505913154E+01
H    5.6421338889790349E+01    5.2894978662710464E+01   -2.5510221130716680E+01
O    3.3039149864169994E+00    9.3151697529004537E+01   -2.4990172171017836E+01
H    3.0918527593294529E+00    9.2187766486043614E+01   -2.5287646160762218E+01
H    3.8271207661948523E+00    9.2968497678725285E+01   -2.4145668529818199E+01
O   -7.9330015840680332E+01    9.7696872204601945E+01   -1.6633177275923703E+01
H   -7.9818833388517135E+01    9.6888685508388562E+01   -1.7014284559459270E+01
H   -7.8349169644801663E+01    9.7390459735172854E+01   -1.6703451722764527E+01
O    3.8069451470428724E+01    5.0711447456930351E+01   -1.6155716185085883E+01
H    3.7877480208274420E+01    4.9988582681659210E+01   -1.6788238884561455E+01
H    3.8618178546549544E+01    5.0496352861381865E+01   -1.5367472377149323E+01
O   -2.5766330548225916E+01    1.3769853416086788E+01   -2.1644620341456914E+01
H   -2.5096129182398005E+01    1.4478064340550135E+01   -2.1926800724279950E+01
H   -2.6614051132615138E+01    1.4084134069476162E+01   -2.1936780921209412E+01
O   -5.8276451174694515E+00    5.8892518070718005E+01   -1.1831710057652918E+01
H   -5.6546455964267359E+00    5.9648504320942820E+01   -1.1211264757088683E+01
H   -6.8558940060772953E+00    5.9022422168374561E+01   -1.1918598816933912E+01
O    3.8406672032484515E+01   -1.4989112231751083E+01   -1.8372034510855208E+01
H    3.8796777110629009E+01   -1.4903205113366052E+01   -1.7425665681278282E+01
H    3.8860033013454149E+01   -1.4239503109423135E+01   -1.8885600874237170E+01
O    7.6536894340991495E+01   -8.3805503573521580E+00   -8.5929929439388903E+00
H    7.6899371968809390E+01   -8.0705103615251499E+00   -7.7580653805105353E+00
H    7.7201493516047833E+01   -8.9833816025914377E+00   -8.9957871228404667E+00
O    5.1150768362551403E+01    4.5139522630944818E+01   -1.4200729537285293E+01