 # Version information for this restart file 
 # current date 2020-08-12 21:54:47.457
 # current working dir /scratch/snx3000/gtocci/gtocci/MEMBRANES/AIMD_US_IONS_BN/aimd_us_pot/us_16
 # Program compiled at                              Fri Nov 22 15:19:42 CET 2019
 # Program compiled on                                                  daint102
 # Program compiled for                                   CRAY_XC50-gfortran_gpu
 # Source code revision number                                       git:a698b45
 &GLOBAL
   PRINT_LEVEL  LOW
   PROJECT_NAME BNS
   RUN_TYPE  MD
   WALLTIME 86400
 &END GLOBAL
 &MOTION
   &MD
     ENSEMBLE  NVT
     STEPS  2000
     TIMESTEP     9.9999999999999989E-01
     STEP_START_VAL  37353
     TIME_START_VAL     3.7352999999996289E+04
     ECONS_START_VAL    -8.4996777573150412E+03
     TEMPERATURE     3.0000000000000000E+02
     TEMP_KIND  T
     &BAROSTAT
       PRESSURE     1.0000000000000000E+00
       TIMECON     9.9999999999999986E+01
       VIRIAL  Z
     &END BAROSTAT
     &THERMOSTAT
       TYPE  NOSE
       REGION  GLOBAL
       &NOSE
         LENGTH  4
         TIMECON     9.9999999999999986E+01
         MTS  2
         &COORD
               2.2220632822238473E-01    3.3364899131103741E+01   -2.6435564328368688E+01    9.5791614328302765E-01
         &END COORD
         &VELOCITY
              -3.8113389672777064E-06   -1.5918358898683270E-05   -1.8294429320591413E-04    2.2822248607839979E-04
         &END VELOCITY
         &MASS
               7.0145132684705392E+07    1.6237299232570693E+04    1.6237299232570693E+04    1.6237299232570693E+04
         &END MASS
         &FORCE
              -5.7163866638379470E-11    4.2436225553695456E-09   -5.8256619700077778E-08   -2.5041399433493592E-08
         &END FORCE
       &END NOSE
     &END THERMOSTAT
     &AVERAGES  T
       &RESTART_AVERAGES
         ITIMES_START  1
         AVECPU     3.8812616817294831E+01
         AVEHUGONIOT     0.0000000000000000E+00
         AVETEMP_BARO     0.0000000000000000E+00
         AVEPOT    -8.5024779462098231E+03
         AVEKIN     2.0559484210971974E+00
         AVETEMP     3.0056314295305032E+02
         AVEKIN_QM     0.0000000000000000E+00
         AVETEMP_QM     0.0000000000000000E+00
         AVEVOL     2.2086622704880577E+05
         AVECELL_A     4.9287836997924984E+01
         AVECELL_B     4.7426456757032106E+01
         AVECELL_C     9.4486306644279694E+01
         AVEALPHA     9.0000000000000000E+01
         AVEBETA     9.0000000000000000E+01
         AVEGAMMA     9.0000000000000000E+01
         AVE_ECONS     1.4072196385014715E+01
         AVE_PRESS     0.0000000000000000E+00
         AVE_PXX     0.0000000000000000E+00
       &END RESTART_AVERAGES
     &END AVERAGES
     &PRINT
       &TEMP_KIND  SILENT
       &END TEMP_KIND
     &END PRINT
   &END MD
   &FREE_ENERGY
     &METADYN
       MIN_DISP    -1.0000000000000000E+00
       OLD_HILL_NUMBER  0
       OLD_HILL_STEP  0
       DO_HILLS  F
       STEP_START_VAL  37353
       NHILLS_START_VAL  0
       &METAVAR
         SCALE     1.0000000000000000E+00
         COLVAR  1
       &END METAVAR
       &PRINT
         &COLVAR  SILENT
           COMMON_ITERATION_LEVELS  3
           &EACH
             MD  1
           &END EACH
         &END COLVAR
       &END PRINT
     &END METADYN
   &END FREE_ENERGY
   &CONSTRAINT
     &COLLECTIVE
       COLVAR  1
       INTERMOLECULAR  T
       &RESTRAINT
         K     4.4625385281452931E-04
       &END RESTRAINT
     &END COLLECTIVE
     &COLVAR_RESTART
           1.5340142807037365E+01
     &END COLVAR_RESTART
   &END CONSTRAINT
   &PRINT
     &TRAJECTORY  SILENT
       &EACH
         MD  1
       &END EACH
     &END TRAJECTORY
     &VELOCITIES  SILENT
       &EACH
         MD  1
       &END EACH
     &END VELOCITIES
     &FORCES  SILENT
       UNIT eV*angstrom^-1
       &EACH
         MD  1
       &END EACH
     &END FORCES
     &RESTART  SILENT
       &EACH
         MD  1
       &END EACH
     &END RESTART
     &RESTART_HISTORY  SILENT
       &EACH
         MD  100
       &END EACH
     &END RESTART_HISTORY
   &END PRINT
 &END MOTION
 &FORCE_EVAL
   METHOD  QS
   &DFT
     BASIS_SET_FILE_NAME /users/gtocci/softwares/data_cp2k//BASIS_MOLOPT
     POTENTIAL_FILE_NAME /users/gtocci/softwares/data_cp2k//GTH_POTENTIALS
     WFN_RESTART_FILE_NAME ./BNS-RESTART.wfn
     CHARGE  1
     &SCF
       MAX_SCF  10
       EPS_SCF     9.9999999999999995E-07
       SCF_GUESS  RESTART
       &OT  T
         MINIMIZER  DIIS
         PRECONDITIONER  FULL_KINETIC
       &END OT
       &OUTER_SCF  T
         EPS_SCF     9.9999999999999995E-07
         MAX_SCF  30
       &END OUTER_SCF
       &PRINT
         &RESTART  SILENT
           ADD_LAST  NUMERIC
           &EACH
             QS_SCF  50
           &END EACH
         &END RESTART
       &END PRINT
     &END SCF
     &QS
       MAP_CONSISTENT  T
       EXTRAPOLATION  ASPC
       EXTRAPOLATION_ORDER  4
     &END QS
     &MGRID
       NGRIDS  5
       CUTOFF     4.6000000000000000E+02
     &END MGRID
     &XC
       DENSITY_CUTOFF     1.0000000000000000E-10
       GRADIENT_CUTOFF     1.0000000000000000E-10
       TAU_CUTOFF     1.0000000000000000E-10
       &XC_GRID
         XC_DERIV  SPLINE2_SMOOTH
       &END XC_GRID
       &XC_FUNCTIONAL  NO_SHORTCUT
         &LIBXC  T
           FUNCTIONAL XC_GGA_X_OPTB88_VDW
         &END LIBXC
         &VWN  T
         &END VWN
       &END XC_FUNCTIONAL
       &VDW_POTENTIAL
         POTENTIAL_TYPE  NON_LOCAL
         &NON_LOCAL
           TYPE  DRSLL
           VERBOSE_OUTPUT  T
           KERNEL_FILE_NAME /users/gtocci/softwares/data_cp2k//vdW_kernel_table.dat
           CUTOFF     3.6000000000000000E+02
         &END NON_LOCAL
       &END VDW_POTENTIAL
     &END XC
     &REAL_TIME_PROPAGATION
       INITIAL_WFN  SCF_WFN
     &END REAL_TIME_PROPAGATION
     &PRINT
       &MULLIKEN  SILENT
         FILENAME =BNS.mulliken
       &END MULLIKEN
     &END PRINT
   &END DFT
   &SUBSYS
     &CELL
       A     2.6082000000000019E+01    0.0000000000000000E+00    0.0000000000000000E+00
       B     0.0000000000000000E+00    2.5097000000000001E+01    0.0000000000000000E+00
       C     0.0000000000000000E+00    0.0000000000000000E+00    5.0000000000000028E+01
       MULTIPLE_UNIT_CELL  1 1 1
     &END CELL
     &COORD
B   -1.1401464545241971E+01    1.3209083809912396E+01   -2.2612004307385511E+01
B   -9.2329487346204644E+00    1.4492498403142578E+01   -2.2721641157331167E+01
B   -1.1461077549394894E+01    1.5721571708469579E+01   -2.2527742705256919E+01
B   -9.2627224210816568E+00    1.7030216418531694E+01   -2.2575872669708449E+01
B   -1.1484208857264088E+01    1.8269873907776908E+01   -2.2460055258865157E+01
B   -9.3837422092203777E+00    1.9548287928549239E+01   -2.2443570569733851E+01
B   -1.1477208538294621E+01    2.0884522411023244E+01   -2.2291381280107860E+01
B   -9.3165489053876325E+00    2.2004353810474445E+01   -2.2501596076932476E+01
B   -1.1428094032931467E+01    2.3286322479291197E+01   -2.2637296247265706E+01
B   -9.2016481264907757E+00    2.4558235109058970E+01   -2.2724888800422502E+01
B   -7.0594038665182923E+00    1.3260850778187095E+01   -2.2759102774067575E+01
B   -4.8811498248622076E+00    1.4536802319046840E+01   -2.2743728784941041E+01
B   -7.0788598195332764E+00    1.5742077095537020E+01   -2.2647750887156121E+01
B   -4.8959756012942401E+00    1.7026040251192367E+01   -2.2577265748782338E+01
B   -7.1234236486345983E+00    1.8340120859166600E+01   -2.2541629377812953E+01
B   -4.9477882813614960E+00    1.9553000735557305E+01   -2.2497518208352925E+01
B   -7.1635502376432578E+00    2.0788033588289657E+01   -2.2478247424079711E+01
B   -4.8809926842933438E+00    2.2033288783412303E+01   -2.2432138453685010E+01
B   -7.0500103250847550E+00    2.3282298992540699E+01   -2.2530850798394376E+01
B   -4.9024207447713657E+00    2.4553612835369638E+01   -2.2425514219046619E+01
B   -2.8059515284972329E+00    1.3317854183020827E+01   -2.2366662837924451E+01
B   -6.2221564607941648E-01    1.4539276150041363E+01   -2.2102243624159847E+01
B   -2.7712019174209059E+00    1.5836703534030889E+01   -2.2413809758949572E+01
B   -6.0044815495281301E-01    1.7046189976153180E+01   -2.2276471027906897E+01
B   -2.7332216291176721E+00    1.8330586175978375E+01   -2.2354435511034616E+01
B   -5.6429952976935938E-01    1.9515468439147437E+01   -2.2374508361416797E+01
B   -2.7194486494371364E+00    2.0810829398422602E+01   -2.2404316333009643E+01
B   -5.7214119490974535E-01    2.2093709077771461E+01   -2.2453223450899831E+01
B   -2.6931507635129162E+00    2.3330653436344178E+01   -2.2460077947865798E+01
B   -5.5784149766631841E-01    2.4581287732785253E+01   -2.2669663006071133E+01
N   -9.9508854755846379E+00    1.3254267550113429E+01   -2.2869798688619760E+01
N   -7.7827360828354371E+00    1.4471851737286379E+01   -2.2692387135535572E+01
N   -9.9856935834086009E+00    1.5782368724585417E+01   -2.2593836770237534E+01
N   -7.8218993603007174E+00    1.7034353416151532E+01   -2.2621069788923840E+01
N   -1.0056713564646088E+01    1.8248699027541193E+01   -2.2477349451434158E+01
N   -7.9503759047862390E+00    1.9551295121405836E+01   -2.2640358658495263E+01
N   -1.0064041052485539E+01    2.0841447080684059E+01   -2.2342562033011379E+01
N   -7.8590141245612939E+00    2.2057670853616305E+01   -2.2431195845946839E+01
N   -9.9984343903751007E+00    2.3238475947841629E+01   -2.2720606893992979E+01
N   -7.7812659095947021E+00    2.4535929681305877E+01   -2.2574938722067063E+01
N   -5.6101605835992361E+00    1.3246082990601405E+01   -2.2829717742904410E+01
N   -3.5017570063995977E+00    1.4536815010866711E+01   -2.2471082746537551E+01
N   -5.6191066474123286E+00    1.5805782647192856E+01   -2.2733449571429443E+01
N   -3.4472100490263013E+00    1.7111960757274364E+01   -2.2549133880954489E+01
N   -5.6549724294992121E+00    1.8293111526975558E+01   -2.2444484541261069E+01
N   -3.4735227135472262E+00    1.9596901575142468E+01   -2.2373277940417829E+01
N   -5.6411742692083973E+00    2.0758769527038417E+01   -2.2526319034971785E+01
N   -3.4379733878333893E+00    2.2040124557690262E+01   -2.2472051621905827E+01
N   -5.6297085458218881E+00    2.3290288338624116E+01   -2.2349710396016896E+01
N   -3.4081133294759383E+00    2.4574546809859733E+01   -2.2309569148210301E+01
N   -1.3805304642887559E+00    1.3267200829303487E+01   -2.2119693772086247E+01
N    8.5796740118376325E-01    1.4592935672581266E+01   -2.2147724586091979E+01
N   -1.3301516362375154E+00    1.5818884027763508E+01   -2.2294391527524738E+01
N    8.8016165320624673E-01    1.7103481304647655E+01   -2.2190566714018008E+01
N   -1.2855721841546224E+00    1.8294772576026151E+01   -2.2249583785466402E+01
N    8.3336824964140577E-01    1.9577407379617018E+01   -2.2555400644284145E+01
N   -1.2471368111920906E+00    2.0786425834828346E+01   -2.2308216565045722E+01
N    8.8682551050358283E-01    2.2054269634455686E+01   -2.2657905975843985E+01
N   -1.3012159939818646E+00    2.3367088451563227E+01   -2.2535721287410279E+01
N    8.6914403311530664E-01    2.4606157718096544E+01   -2.2552653278859324E+01
B   -1.1423368166654051E+01    2.5753962290631573E+01   -2.2965069723536164E+01
B   -9.2274128766054258E+00    2.7018331336382484E+01   -2.2896572973129505E+01
B   -1.1431128743582875E+01    2.8247478613237821E+01   -2.3106017163393940E+01
B   -9.2129925573259595E+00    2.9507670380109889E+01   -2.2783326710178578E+01
B   -1.1454468150091426E+01    3.0728522899329647E+01   -2.2975382875330784E+01
B   -9.2607900407451194E+00    3.2027825999390018E+01   -2.2748331908756839E+01
B   -1.1361708334895596E+01    3.3309230331430008E+01   -2.2930850166064584E+01
B   -9.2194369987359828E+00    3.4555948161013596E+01   -2.2770375986421971E+01
B   -1.1429261889030013E+01    3.5792073626333796E+01   -2.2701974157698672E+01
B   -9.2223442307142687E+00    3.7079455512771787E+01   -2.2831054399312787E+01
B   -7.0315757137563084E+00    2.5792795116467161E+01   -2.2683133310484575E+01
B   -4.8580820789839070E+00    2.6963635629350357E+01   -2.2707536002966407E+01
B   -7.0809145788052783E+00    2.8269145860480819E+01   -2.2792630840102923E+01
B   -4.9180073056734424E+00    2.9552648231072187E+01   -2.2592786106878908E+01
B   -7.0963716213904906E+00    3.0818714693627474E+01   -2.2699536653043175E+01
B   -4.8444694945683153E+00    3.2095789908058222E+01   -2.2575082651805829E+01
B   -7.0574725210872566E+00    3.3279363864603937E+01   -2.2514755421328182E+01
B   -4.9104351002604751E+00    3.4537900746992598E+01   -2.2529589773596737E+01
B   -7.0402709597292121E+00    3.5853879360417373E+01   -2.2732630347653291E+01
B   -4.9565528961108125E+00    3.7067600709169199E+01   -2.2671271043310171E+01
B   -2.7106611747084060E+00    2.5815912662865461E+01   -2.2581681323974685E+01
B   -5.6499446362617434E-01    2.7144214056563577E+01   -2.2564631865421578E+01
B   -2.7403541287597379E+00    2.8308396583971490E+01   -2.2565104265158471E+01
B   -5.2566577081346577E-01    2.9598024066870497E+01   -2.2391465003412350E+01
B   -2.7148223997994085E+00    3.0786979574734620E+01   -2.2500670254187373E+01
B   -5.7561059737944897E-01    3.2089055631606179E+01   -2.2333688313181295E+01
B   -2.7512729105175477E+00    3.3324682656042562E+01   -2.2528071086365799E+01
B   -5.7147705842873808E-01    3.4562572412322211E+01   -2.2157641521784463E+01
B   -2.7286360800631830E+00    3.5834424973256233E+01   -2.2287927390328189E+01
B   -6.1414903184334613E-01    3.7065772549719050E+01   -2.2082618980954063E+01
N   -9.9770278887686743E+00    2.5795365072230485E+01   -2.2804605281168300E+01
N   -7.7917317015179464E+00    2.7021816788235746E+01   -2.2887662008702275E+01
N   -9.9480754848486281E+00    2.8261778576365209E+01   -2.3006514817265195E+01
N   -7.7652258221600023E+00    2.9583108655200085E+01   -2.2743249421077920E+01
N   -9.9920040909198296E+00    3.0801358903896229E+01   -2.2829387660772110E+01
N   -7.8147572482173357E+00    3.2068679858540754E+01   -2.2589325065150202E+01
N   -9.9412390240318746E+00    3.3312850235431014E+01   -2.2830832359984985E+01
N   -7.7547272338586781E+00    3.4557766073843482E+01   -2.2643686120871980E+01
N   -9.9606988149082909E+00    3.5820696964594063E+01   -2.2726980864309422E+01
N   -7.7623626493612568E+00    3.7118236730851535E+01   -2.2785015461482203E+01
N   -5.6255881046177567E+00    2.5785540806785139E+01   -2.2592125167685005E+01
N   -3.4204251127610528E+00    2.7041065744546554E+01   -2.2827862169162582E+01
N   -5.6294705139486565E+00    2.8246703427706780E+01   -2.2668426794595838E+01
N   -3.4553468568814525E+00    2.9547368175065966E+01   -2.2407652284130311E+01
N   -5.6415018499615597E+00    3.0802519421601154E+01   -2.2619614038650191E+01
N   -3.3915014447248746E+00    3.2084229489018782E+01   -2.2653572660668054E+01
N   -5.6360070571223275E+00    3.3300290479606844E+01   -2.2461590157214552E+01
N   -3.4385603398471312E+00    3.4560895413012489E+01   -2.2459869599746174E+01
N   -5.6281397405401234E+00    3.5795450738714777E+01   -2.2600073204212503E+01
N   -3.4613318588340314E+00    3.7105420462192868E+01   -2.2471348684283633E+01
N   -1.3363115852829495E+00    2.5840954016350977E+01   -2.2574822566052884E+01
N    8.8690469636051128E-01    2.7102236623966061E+01   -2.2470464227639663E+01
N   -1.2616391277370400E+00    2.8378252135916057E+01   -2.2507003412124725E+01
N    9.3574258323347903E-01    2.9589024043890181E+01   -2.2341197614119373E+01
N   -1.2839892174984144E+00    3.0830672016980692E+01   -2.2340082646653354E+01
N    8.8800572415695611E-01    3.2089131385915181E+01   -2.2246059773979400E+01
N   -1.2715231968132124E+00    3.3348214994717516E+01   -2.2297488345278168E+01
N    8.6572546893616564E-01    3.4612818163374598E+01   -2.2093297686873054E+01
N   -1.3054590213843755E+00    3.5828368494299269E+01   -2.2136333717400618E+01
N    8.4899921520976684E-01    3.7134161441494946E+01   -2.2065034871979520E+01
B    1.6087168714202800E+00    1.3337277840812375E+01   -2.2203568785345102E+01
B    3.7880067749274313E+00    1.4535488561271388E+01   -2.2499836588814038E+01
B    1.6260203957861836E+00    1.5822056208348807E+01   -2.2171103055693468E+01
B    3.7732056668869793E+00    1.7056285656221846E+01   -2.2462119440381922E+01
B    1.5821445325908057E+00    1.8338423852670946E+01   -2.2440461464785358E+01
B    3.7546183069734451E+00    1.9556278587816493E+01   -2.2656713568991218E+01
B    1.5902281679672925E+00    2.0787544857550060E+01   -2.2685471470986265E+01
B    3.7424373128585833E+00    2.2070102207550029E+01   -2.2700097521998110E+01
B    1.6103756018503379E+00    2.3303070069664670E+01   -2.2696765903662154E+01
B    3.7380737248311471E+00    2.4599455900409723E+01   -2.2605439644176393E+01
B    5.8984532551461806E+00    1.3286149479396238E+01   -2.2639459281412936E+01
B    8.1030366193023013E+00    1.4533311598189378E+01   -2.2527892575316244E+01
B    5.9756264852195899E+00    1.5841304458072463E+01   -2.2475760393334848E+01
B    8.1368317324974537E+00    1.7049145235708611E+01   -2.2443688681521746E+01
B    5.9493464795617159E+00    1.8292821708646272E+01   -2.2668172986938952E+01
B    8.1370062143296007E+00    1.9533926296513279E+01   -2.2409904831337187E+01
B    5.9519718285458527E+00    2.0820566697884964E+01   -2.2492269924952200E+01
B    8.1433455122894518E+00    2.2053378887135018E+01   -2.2296450594845702E+01
B    5.9374568287795704E+00    2.3293179936265226E+01   -2.2510073345965097E+01
B    8.1459102150706997E+00    2.4581941570161984E+01   -2.2486044422138839E+01
B    1.0310575952657784E+01    1.3231883910025866E+01   -2.2601198942925670E+01
B    1.2474020098334854E+01    1.4535473618304154E+01   -2.2532474406977638E+01
B    1.0263631087523651E+01    1.5739644108226603E+01   -2.2457995947248488E+01
B    1.2437307509013547E+01    1.7024478251246045E+01   -2.2271651553631958E+01
B    1.0305833254780959E+01    1.8249785605463309E+01   -2.2152295193357372E+01
B    1.2476757423762947E+01    1.9508283078355912E+01   -2.2196020479162733E+01
B    1.0284615230644867E+01    2.0723958897735436E+01   -2.2142915868229629E+01
B    1.2417771064060767E+01    2.2024987997604612E+01   -2.2209256511677168E+01
B    1.0248085574254304E+01    2.3301263192270849E+01   -2.2405974205672237E+01
B    1.2459677785323400E+01    2.4525610114566668E+01   -2.2682340719242966E+01
N    3.0540578792305366E+00    1.3285089226796357E+01   -2.2439544789184882E+01
N    5.2422322866926390E+00    1.4596975546556685E+01   -2.2520124926791890E+01
N    3.0564647709037671E+00    1.5796951404563787E+01   -2.2316839858337797E+01
N    5.2290049952427804E+00    1.7056560966272496E+01   -2.2633253958830331E+01
N    3.0618898095721341E+00    1.8349335672067532E+01   -2.2457371956936399E+01
N    5.2393808841312435E+00    1.9564407470760514E+01   -2.2657371989115511E+01
N    3.0849729165255759E+00    2.0766897954336645E+01   -2.2718464846709413E+01
N    5.1923352332428436E+00    2.2051620464394578E+01   -2.2479396320535233E+01
N    3.0784390178807124E+00    2.3299048086711185E+01   -2.2828751231451619E+01
N    5.1738025439709103E+00    2.4556418794868279E+01   -2.2557572014083853E+01
N    7.3735618807656493E+00    1.3240150483344738E+01   -2.2605551844628824E+01
N    9.5718494324470402E+00    1.4486300114500212E+01   -2.2549512001899984E+01
N    7.4339348745705331E+00    1.5797402443240747E+01   -2.2373777977119559E+01
N    9.5631946220318635E+00    1.6989646861298521E+01   -2.2271068110993529E+01
N    7.3874064054797026E+00    1.8304994282244376E+01   -2.2600973313230941E+01
N    9.5224669581058823E+00    1.9486055597620268E+01   -2.2129955510832534E+01
N    7.4149709336929366E+00    2.0809938891516317E+01   -2.2334629522509484E+01
N    9.6142247697211030E+00    2.2021397452445928E+01   -2.2271537350547174E+01
N    7.4144121413148785E+00    2.3307795272192156E+01   -2.2346984675030452E+01
N    9.5916616883336658E+00    2.4540135966417576E+01   -2.2442488352341126E+01
N    1.1777892214998408E+01    1.3279115752215347E+01   -2.2632149833698993E+01
N    1.3926593467395302E+01    1.4445816945817162E+01   -2.2478550096855006E+01
N    1.1689768020252851E+01    1.5780759851572371E+01   -2.2277693312124111E+01
N    1.3883744986962043E+01    1.6970274713483185E+01   -2.2432680751233512E+01
N    1.1767110590716586E+01    1.8252398775499280E+01   -2.2201973266940616E+01
N    1.3902840203688863E+01    1.9592070670573545E+01   -2.2420145773719454E+01
N    1.1683695930140651E+01    2.0696983394584091E+01   -2.2102715244061514E+01
N    1.3915848970749224E+01    2.2098058980286968E+01   -2.2328941985960927E+01
N    1.1706623748775849E+01    2.3273996731715496E+01   -2.2464752342701448E+01
N    1.3901642479461668E+01    2.4534047305503062E+01   -2.2840372337685260E+01
B    1.6170458511864683E+00    2.5839734800184448E+01   -2.2499306013722968E+01
B    3.8569309221510952E+00    2.7085530175480130E+01   -2.2487141850661605E+01
B    1.6897033011643987E+00    2.8346898999880075E+01   -2.2387756209132455E+01
B    3.8468889251201759E+00    2.9631729974365932E+01   -2.2287744453148434E+01
B    1.6542886817212625E+00    3.0836906197070899E+01   -2.2210857842957161E+01
B    3.7916716773149255E+00    3.2149745071879700E+01   -2.2204807245856852E+01
B    1.5529625397451725E+00    3.3392084345797343E+01   -2.2199584512779420E+01
B    3.7122911064408597E+00    3.4634859679575548E+01   -2.2361906922045698E+01
B    1.5347011758673401E+00    3.5863774372198883E+01   -2.2095980485273351E+01
B    3.7602507631481594E+00    3.7116766390066694E+01   -2.2568364813861542E+01
B    5.9407326326229795E+00    2.5824044876237814E+01   -2.2443075107909987E+01
B    8.1042996161114687E+00    2.7056627088472201E+01   -2.2721836789950018E+01
B    6.0009944831679674E+00    2.8353859650229104E+01   -2.2574945246268996E+01
B    8.1549179595790271E+00    2.9580310037088886E+01   -2.2784463045044177E+01
B    5.9317477383624650E+00    3.0864847732668792E+01   -2.2536820302390510E+01
B    8.0679306324494480E+00    3.2078533545741280E+01   -2.2817436198354180E+01
B    5.9147463456994105E+00    3.3366827538490845E+01   -2.2626548801418085E+01
B    8.0953627985052510E+00    3.4551352280926487E+01   -2.2847113799640606E+01
B    5.9853447517231810E+00    3.5889510297356793E+01   -2.2603087484180058E+01
B    8.1577171848075256E+00    3.7114077864517803E+01   -2.2652400325633099E+01
B    1.0276041604017887E+01    2.5801192250360945E+01   -2.2723729695936878E+01
B    1.2464515646021706E+01    2.7067320845667950E+01   -2.3013671970738248E+01
B    1.0328242527438181E+01    2.8320139950963338E+01   -2.3005666985674541E+01
B    1.2443732321687959E+01    2.9552868375689748E+01   -2.3059575774931414E+01
B    1.0261781132752692E+01    3.0826408224962925E+01   -2.3005012320243246E+01
B    1.2453188373129985E+01    3.2037096654078304E+01   -2.3067139358415808E+01
B    1.0251356953402015E+01    3.3336828857920025E+01   -2.3022339503642353E+01
B    1.2492143511010202E+01    3.4528796983702186E+01   -2.2786233469422001E+01
B    1.0305940768618431E+01    3.5843476334971427E+01   -2.2677116861934085E+01
B    1.2486656940003309E+01    3.7096588164569887E+01   -2.2652178677176948E+01
N    3.0577123742886587E+00    2.5844246316404067E+01   -2.2542260751950707E+01
N    5.2649479808063324E+00    2.7081604263287570E+01   -2.2462792769948592E+01
N    3.1316478813847142E+00    2.8337745325779395E+01   -2.2371655943458091E+01
N    5.2519073311649853E+00    2.9631437524445545E+01   -2.2482448170987738E+01
N    3.0942641454733919E+00    3.0880086968234480E+01   -2.2070581475512036E+01
N    5.2478282943510015E+00    3.2182495286319025E+01   -2.2347745910876451E+01
N    3.0109317634110675E+00    3.3404780619455479E+01   -2.2224619877167473E+01
N    5.1931705760776596E+00    3.4646919239547266E+01   -2.2545792759512967E+01
N    2.9625913034479341E+00    3.5899281474310619E+01   -2.2375129784012778E+01
N    5.2142166779360828E+00    3.7141175914980998E+01   -2.2733354507549322E+01
N    7.3708756516521721E+00    2.5836933614237676E+01   -2.2480595724362718E+01
N    9.5816154913513181E+00    2.7065634133228421E+01   -2.2837898115649921E+01
N    7.4333300785202354E+00    2.8324867579434120E+01   -2.2728249367158458E+01
N    9.5619239253080668E+00    2.9533752390864887E+01   -2.3021372966690887E+01
N    7.3967008708345254E+00    3.0768893631170222E+01   -2.2636774365775366E+01
N    9.5096720426878587E+00    3.2084130611818090E+01   -2.2954801918420543E+01
N    7.3307192422095699E+00    3.3328777063605223E+01   -2.2811910204676941E+01
N    9.5662146914623207E+00    3.4595950982131917E+01   -2.2867366345882552E+01
N    7.3963650677250881E+00    3.5828464705890390E+01   -2.2744549676476353E+01
N    9.5954229061479115E+00    3.7097367979048478E+01   -2.2521667808534673E+01
N    1.1783076852159828E+01    2.5766234734327440E+01   -2.2814201605017157E+01
N    1.3889268760056726E+01    2.6998056164669723E+01   -2.3173683047747666E+01
N    1.1730146527373440E+01    2.8285717031949421E+01   -2.3109449252585602E+01
N    1.3921519186891436E+01    2.9465333590950280E+01   -2.3096581762729823E+01
N    1.1690478454061354E+01    3.0766105549823195E+01   -2.3100298156764044E+01
N    1.3943068485875438E+01    3.2073250792208043E+01   -2.3080381340549483E+01
N    1.1697807813437086E+01    3.3273708435391690E+01   -2.3001755420939549E+01
N    1.3976479147783863E+01    3.4567473303540510E+01   -2.2769452853567934E+01
N    1.1771319566681440E+01    3.5777984184569405E+01   -2.2666632542935037E+01
N    1.3944649462610279E+01    3.7089797919806472E+01   -2.2573182649523627E+01
O   -4.1786190618922625E+01    7.9077049351564526E+01   -1.9961849489915561E+01
H   -4.0982977770058397E+01    7.8562233194514661E+01   -2.0163771832167559E+01
H   -4.1426772284633635E+01    7.9627908641677251E+01   -1.9241880271043321E+01
O   -7.5899001286245124E+01    6.8769281931140355E+01   -1.5306809740438913E+01
H   -7.6063715086249672E+01    6.9497802838989770E+01   -1.5942914980274507E+01
H   -7.5214411558919153E+01    6.8108543372334850E+01   -1.5700926873544361E+01
O   -5.6890953966657683E+01    1.2015548954624188E+02   -1.3643684530986620E+01
H   -5.7581368101093439E+01    1.1946479164990427E+02   -1.3778483134080421E+01
H   -5.6784763433915423E+01    1.2015710827539598E+02   -1.2644977428819594E+01
O   -3.1379591362209780E+01    8.1542198129283918E+01   -1.8618209873494223E+01
H   -3.0680802572340401E+01    8.0936232006700479E+01   -1.8869721437533489E+01
H   -3.1314669528151857E+01    8.2221869259179556E+01   -1.9316618986931491E+01
O    6.4404271587996165E-01    6.1876318438692586E+01   -1.8570551855884169E+01
H    6.4828924397928500E-01    6.1972266698912570E+01   -1.7503572077117724E+01
H   -3.2720829767218756E-01    6.1751232826003346E+01   -1.8743453042799594E+01
O   -6.2979666390603008E+01    6.8083618756232880E+01   -1.3918057382326182E+01
H   -6.2633527620612206E+01    6.8512658037040495E+01   -1.4764932832645464E+01
H   -6.3928888988587346E+01    6.7797736964124994E+01   -1.4151582010993003E+01
O    1.5619250003199260E+01    5.8877876000884399E+01   -1.0158878538959963E+01
H    1.5996149004947144E+01    5.8388692033248390E+01   -9.2838004824230644E+00
H    1.6072246759759789E+01    5.9697387515197278E+01   -1.0215952775490619E+01
O   -4.2013547696986187E+01    9.3213511622703564E+01   -6.7674267837562834E+00
H   -4.2980938873981017E+01    9.3211104800498887E+01   -6.7971197646788513E+00
H   -4.1668409898817245E+01    9.3420047497452700E+01   -7.6609383040760690E+00
O    3.0034124134000610E+01    7.1298044230341546E+01   -1.1685324248718262E+01
H    3.0804621578557750E+01    7.1128570006805205E+01   -1.2276594368498268E+01
H    3.0259366221702173E+01    7.0471320409750433E+01   -1.1055874713085652E+01
O   -3.9477907479014767E+01    3.1461999657694847E+01   -1.3986466557729239E+01
H   -3.8913054060919478E+01    3.2053680963369452E+01   -1.3388080463869112E+01
H   -3.9796242784729081E+01    3.1942086083877996E+01   -1.4774402463186451E+01
O   -3.9034580434448316E+01    5.3085073673492062E+01   -2.0032090222361976E+01
H   -3.8401634490521147E+01    5.2344902024849958E+01   -2.0188336482576144E+01
H   -3.8564886732686197E+01    5.3927091010610873E+01   -2.0245123438939228E+01
O   -1.8352404496272282E-03    7.3572493637374350E+01   -1.2804410190408307E+01
H    4.0435406501472027E-01    7.4447666167228093E+01   -1.2521179401933265E+01
H    7.5925565607279044E-01    7.2895976458420691E+01   -1.2871392694003518E+01
O   -6.3384531129944062E+00    1.0829197276396265E+02   -1.0203139170967569E+01
H   -7.1668242706600056E+00    1.0779745850429272E+02   -9.9452757514004482E+00
H   -5.8397170346350062E+00    1.0826685986628532E+02   -9.3517020840215075E+00
O   -8.0870438904875019E+00    5.5905581045216735E+01   -6.7989667697050589E+00
H   -7.7305548179128563E+00    5.5084529730062798E+01   -7.1799968116679826E+00
H   -8.3124558595152340E+00    5.5706099809986419E+01   -5.8618334669145860E+00
O   -1.7868513033837996E+01    2.8426572735339487E+01   -5.4430829858692338E+00
H   -1.7441967298741059E+01    2.9005042158416529E+01   -4.8035953696479092E+00
H   -1.8854836242176770E+01    2.8636717499007041E+01   -5.4571646112245462E+00
O   -2.3486367881024197E+01    1.2651949147323377E+02   -1.9316238771291591E+01
H   -2.3071150754670672E+01    1.2591751907871959E+02   -1.8609281309387512E+01
H   -2.3107554629862662E+01    1.2607853828949440E+02   -2.0070599205692062E+01
O   -1.7233378497646317E+01    6.4720464459251318E+01   -1.0401060632028925E+01
H   -1.6922058998031787E+01    6.3989031871883782E+01   -9.8067260827589191E+00
H   -1.6682780614436719E+01    6.5543842781680098E+01   -1.0184638054740748E+01
O   -3.0963184085549113E+01    7.9081819209964308E+01   -9.0604873512966293E+00
H   -3.0225864308274602E+01    7.9141379111779614E+01   -8.3907947535436254E+00
H   -3.0998284458626664E+01    7.8075723255624538E+01   -9.2621673788656427E+00
O   -6.5231994526382209E+01    8.4519013177552878E+01   -9.6413859096727883E+00
H   -6.4308805890854543E+01    8.4343938031731938E+01   -9.9917162028988109E+00