 # Version information for this restart file 
 # current date 2019-01-28 03:12:58.263
 # current working dir /scratch/snx3000/gtocci/gtocci/MEMBRANES/AIMD_US_IONS_GRA/potassium/aimd_us_pot/us_18
 # Program compiled at                             Thu Oct 11 21:49:41 CEST 2018
 # Program compiled on                                                  daint104
 # Program compiled for                                   CRAY_XC50-gfortran_gpu
 # Source code revision number                                     git:be74c20a5
 &GLOBAL
   PRINT_LEVEL  LOW
   PROJECT_NAME GRAS
   RUN_TYPE  MD
   WALLTIME 10200
 &END GLOBAL
 &MOTION
   &MD
     ENSEMBLE  NVT
     STEPS  100000
     TIMESTEP     9.9999999999999989E-01
     STEP_START_VAL  40745
     TIME_START_VAL     4.0744999999990774E+04
     ECONS_START_VAL    -8.3207046710076720E+03
     TEMPERATURE     3.0000000000000000E+02
     TEMP_KIND  T
     &BAROSTAT
       PRESSURE     1.0000000000000000E+00
       TIMECON     9.9999999999999986E+01
       VIRIAL  Z
     &END BAROSTAT
     &THERMOSTAT
       TYPE  NOSE
       REGION  GLOBAL
       &NOSE
         LENGTH  4
         TIMECON     9.9999999999999986E+01
         MTS  2
         &COORD
               1.2800297123124690E-01    1.3817674196350000E+01   -1.0666742676379111E+00    1.4049953005815109E+01
         &END COORD
         &VELOCITY
              -2.6091018482904201E-06    3.6850299053838319E-04    8.5327674224769024E-05    2.3835868047864962E-04
         &END VELOCITY
         &MASS
               7.0145132684705392E+07    1.6237299232570693E+04    1.6237299232570693E+04    1.6237299232570693E+04
         &END MASS
         &FORCE
              -3.3657178319854590E-10   -2.9101992045574325E-08    7.7284440185626662E-08   -5.1229201861496759E-08
         &END FORCE
       &END NOSE
     &END THERMOSTAT
     &AVERAGES  T
       &RESTART_AVERAGES
         ITIMES_START  1
         AVECPU     4.6529912512784442E+01
         AVEHUGONIOT     0.0000000000000000E+00
         AVETEMP_BARO     0.0000000000000000E+00
         AVEPOT    -8.3232541109059202E+03
         AVEKIN     2.0543895984290748E+00
         AVETEMP     3.0033525560158103E+02
         AVEKIN_QM     0.0000000000000000E+00
         AVETEMP_QM     0.0000000000000000E+00
         AVEVOL     2.1331414786628072E+05
         AVECELL_A     4.8437460238125503E+01
         AVECELL_B     4.6608961231944612E+01
         AVECELL_C     9.4486306644279509E+01
         AVEALPHA     9.0000000000000057E+01
         AVEBETA     9.0000000000000057E+01
         AVEGAMMA     9.0000000000000057E+01
         AVE_ECONS    -2.0023055704638697E+00
         AVE_PRESS     0.0000000000000000E+00
         AVE_PXX     0.0000000000000000E+00
       &END RESTART_AVERAGES
     &END AVERAGES
     &PRINT
       &TEMP_KIND  SILENT
       &END TEMP_KIND
     &END PRINT
   &END MD
   &FREE_ENERGY
     &METADYN
       MIN_DISP    -1.0000000000000000E+00
       OLD_HILL_NUMBER  0
       OLD_HILL_STEP  0
       DO_HILLS  F
       STEP_START_VAL  40745
       NHILLS_START_VAL  0
       &METAVAR
         SCALE     1.0000000000000000E+00
         COLVAR  1
       &END METAVAR
       &PRINT
         &COLVAR  SILENT
           COMMON_ITERATION_LEVELS  3
           &EACH
             MD  1
           &END EACH
         &END COLVAR
       &END PRINT
     &END METADYN
   &END FREE_ENERGY
   &CONSTRAINT
     &COLLECTIVE
       COLVAR  1
       INTERMOLECULAR  T
       &RESTRAINT
         K     4.4625385281452931E-04
       &END RESTRAINT
     &END COLLECTIVE
     &COLVAR_RESTART
           1.7007535195970792E+01
     &END COLVAR_RESTART
   &END CONSTRAINT
   &PRINT
     &TRAJECTORY  SILENT
       &EACH
         MD  1
       &END EACH
     &END TRAJECTORY
     &VELOCITIES  SILENT
       &EACH
         MD  1
       &END EACH
     &END VELOCITIES
     &FORCES  SILENT
       UNIT eV*angstrom^-1
       &EACH
         MD  1
       &END EACH
     &END FORCES
     &RESTART  SILENT
       &EACH
         MD  1
       &END EACH
     &END RESTART
     &RESTART_HISTORY  SILENT
       &EACH
         MD  100
       &END EACH
     &END RESTART_HISTORY
   &END PRINT
 &END MOTION
 &FORCE_EVAL
   METHOD  QS
   &DFT
     BASIS_SET_FILE_NAME /users/gtocci/scratch_daint_3000/data_cp2k//BASIS_MOLOPT
     POTENTIAL_FILE_NAME /users/gtocci/scratch_daint_3000/data_cp2k//GTH_POTENTIALS
     WFN_RESTART_FILE_NAME ./GRAS-RESTART.wfn
     CHARGE  1
     &SCF
       MAX_SCF  10
       EPS_SCF     9.9999999999999995E-07
       SCF_GUESS  RESTART
       &OT  T
         MINIMIZER  DIIS
         PRECONDITIONER  FULL_KINETIC
       &END OT
       &OUTER_SCF  T
         EPS_SCF     9.9999999999999995E-07
         MAX_SCF  30
       &END OUTER_SCF
       &PRINT
         &RESTART  SILENT
           ADD_LAST  NUMERIC
           &EACH
             QS_SCF  50
           &END EACH
         &END RESTART
       &END PRINT
     &END SCF
     &QS
       MAP_CONSISTENT  T
       EXTRAPOLATION  ASPC
       EXTRAPOLATION_ORDER  4
     &END QS
     &MGRID
       NGRIDS  5
       CUTOFF     4.6000000000000000E+02
     &END MGRID
     &XC
       DENSITY_CUTOFF     1.0000000000000000E-10
       GRADIENT_CUTOFF     1.0000000000000000E-10
       TAU_CUTOFF     1.0000000000000000E-10
       &XC_GRID
         XC_DERIV  SPLINE2_SMOOTH
       &END XC_GRID
       &XC_FUNCTIONAL  NO_SHORTCUT
         &LIBXC  T
           FUNCTIONAL XC_GGA_X_OPTB88_VDW
         &END LIBXC
         &VWN  T
         &END VWN
       &END XC_FUNCTIONAL
       &VDW_POTENTIAL
         POTENTIAL_TYPE  NON_LOCAL
         &NON_LOCAL
           TYPE  DRSLL
           VERBOSE_OUTPUT  T
           KERNEL_FILE_NAME /users/gtocci/scratch_daint_3000/data_cp2k//vdW_kernel_table.dat
         &END NON_LOCAL
       &END VDW_POTENTIAL
     &END XC
     &REAL_TIME_PROPAGATION
       INITIAL_WFN  SCF_WFN
     &END REAL_TIME_PROPAGATION
     &PRINT
       &MULLIKEN  SILENT
         FILENAME =GRAS.mulliken
       &END MULLIKEN
     &END PRINT
   &END DFT
   &SUBSYS
     &CELL
       A     2.5632000000000001E+01    0.0000000000000000E+00    0.0000000000000000E+00
       B     0.0000000000000000E+00    2.4664400000000022E+01    0.0000000000000000E+00
       C     0.0000000000000000E+00    0.0000000000000000E+00    5.0000000000000028E+01
       MULTIPLE_UNIT_CELL  1 1 1
     &END CELL
     &COORD
C    9.1402413319907954E+00    5.8249114512606326E+00    4.2388528824132612E+00
C    1.0556775970307216E+01    5.7646868802484157E+00    4.2157499223637016E+00
C    1.1251957907648956E+01    7.0121242234946992E+00    4.2076863496164423E+00
C    1.2685708889083784E+01    7.0387564770117423E+00    4.2024266835171522E+00
C    9.0560557927940621E+00    8.2730741049237935E+00    4.2090193255707113E+00
C    1.0510506356855400E+01    8.2337902841134643E+00    4.2059174845024643E+00
C    1.1193079890679646E+01    9.4789611064965875E+00    4.1994979940108363E+00
C    1.2654859977029734E+01    9.4928938323754064E+00    4.1978678656508821E+00
C    9.0582781775058212E+00    1.0705190597688258E+01    4.1452505393677184E+00
C    1.0500259073325902E+01    1.0702801766372044E+01    4.1603078893592729E+00
C    1.1194640456700517E+01    1.1940413384167668E+01    4.1348253679056102E+00
C    1.2627192353629551E+01    1.1944901887943603E+01    4.1315792477608468E+00
C    9.1103018995285865E+00    1.3223703425704418E+01    4.1644909569983835E+00
C    1.0526298887413361E+01    1.3195734395869781E+01    4.0974466091714525E+00
C    1.1209512349841054E+01    1.4462091267454133E+01    4.1300332382012073E+00
C    1.2633105624060757E+01    1.4456124989757161E+01    4.1164458313122010E+00
C    9.0953227605091733E+00    1.5677680787018275E+01    4.2485166814629709E+00
C    1.0530635701543906E+01    1.5701514988112942E+01    4.1466839362694046E+00
C    1.1301638340440308E+01    4.5458641289295532E+00    4.2435122591025252E+00
C    1.2736000246613928E+01    4.5492918241327462E+00    4.2108860960603938E+00
C    1.3430291749826191E+01    5.7947651504300168E+00    4.1915174150890468E+00
C    1.4817127797882355E+01    5.8054273174086841E+00    4.1272365229681958E+00
C    1.5532000492520922E+01    7.0199920163524405E+00    4.0830039567451530E+00
C    1.6942586405306791E+01    7.0557838319223078E+00    3.8755836582406538E+00
C    1.3375010855414148E+01    8.2579404229651754E+00    4.2241637565930610E+00
C    1.4785001554846049E+01    8.2233035353523043E+00    4.2074737352223766E+00
C    1.5513342185764941E+01    9.4778968147583740E+00    4.1909300838001977E+00
C    1.6925692461502827E+01    9.5214365769181271E+00    3.9983745265957231E+00
C    1.3327041726189329E+01    1.0729880080449311E+01    4.1572286598381121E+00
C    1.4783596325628228E+01    1.0702605541446014E+01    4.2111426794191420E+00
C    1.5458861027486643E+01    1.1972775208009878E+01    4.1447208874726389E+00
C    1.6882539191951242E+01    1.1992727195045500E+01    4.0198468707421080E+00
C    1.3341927878419112E+01    1.3188301013653122E+01    4.1152713549841229E+00
C    1.4736694824866207E+01    1.3187281694673528E+01    4.0438189721157309E+00
C    1.5454378900472234E+01    1.4405928154711344E+01    3.9924844009524558E+00
C    1.6890328050102550E+01    1.4443245535065328E+01    3.9642647169286329E+00
C    1.3334822004764074E+01    1.5715875581917350E+01    4.0679634384501933E+00
C    1.4748756606340724E+01    1.5635549960758656E+01    4.0068878840589202E+00
C    1.5550603789067091E+01    4.5786327348202258E+00    4.0961786188627851E+00
C    1.6986467556627211E+01    4.5875687377736840E+00    3.9979498647918179E+00
C    1.7674067000165902E+01    5.8280662919633661E+00    3.8230789846239701E+00
C    1.9144238852418329E+01    5.7902903079867176E+00    3.7802946601138343E+00
C    1.9816253830190323E+01    7.0455505672384477E+00    3.6951845233046123E+00
C    2.1232880828413219E+01    7.0675378309389938E+00    3.6695560453175275E+00
C    1.7660099006631661E+01    8.2790970450410697E+00    3.8742471918349395E+00
C    1.9079059287325428E+01    8.2942246443683256E+00    3.8413154832865763E+00
C    1.9795337412317817E+01    9.5590689968711580E+00    3.8050505646861703E+00
C    2.1237767676364321E+01    9.5613527511549137E+00    3.8065206164152658E+00
C    1.7614805044686292E+01    1.0765584946782802E+01    3.9645842801465032E+00
C    1.9059060936363206E+01    1.0769452206264896E+01    3.8714168451072375E+00
C    1.9765905357775345E+01    1.1997042744510955E+01    3.7405836062747140E+00
C    2.1207381598898539E+01    1.1992310719721759E+01    3.6887613493567160E+00
C    1.7617200708531982E+01    1.3214656926404041E+01    3.9161582883536865E+00
C    1.9061489015280340E+01    1.3236782310979883E+01    3.8114026255812536E+00
C    1.9779908050617252E+01    1.4461092058617021E+01    3.7436795619947190E+00
C    2.1213530875094271E+01    1.4416844576992546E+01    3.7223780713877868E+00
C    1.7628770062556427E+01    1.5650265879548018E+01    3.8630494307196326E+00
C    1.9050203546336547E+01    1.5647901162460666E+01    3.7551709501684427E+00
C    1.9826236061415891E+01    4.6018553733087355E+00    3.8704304190913814E+00
C    2.1230303268114334E+01    4.5965000277581662E+00    3.7968479946964386E+00
C    9.1099989330113651E+00    1.8153551492864523E+01    4.1778180104391591E+00
C    1.0529671530854367E+01    1.8171867289650613E+01    4.2123788786403074E+00
C    1.1223475734025490E+01    1.9408651984450572E+01    4.1886121289653095E+00
C    1.2663983807931235E+01    1.9367450705257497E+01    4.1953134013491127E+00
C    9.1320773746218151E+00    2.0628589266061738E+01    4.1587832011895314E+00
C    1.0559627370528048E+01    2.0667750561697691E+01    4.2007735710939071E+00
C    1.1287699334583891E+01    2.1858431087705700E+01    4.2805101127063274E+00
C    1.2740465310880371E+01    2.1808600769047437E+01    4.2620824285647485E+00
C    9.1489974156038691E+00    2.3061419607601302E+01    4.0233474747000173E+00
C    1.0616881417556705E+01    2.3068220893469551E+01    4.1700805147207944E+00
C    1.1329632519055512E+01    2.4298510096222543E+01    4.1743024588132158E+00
C    1.2743392653203561E+01    2.4267477189821939E+01    4.1268497281276160E+00
C    9.1482611109636505E+00    2.5511576554600961E+01    4.0534473833344231E+00
C    1.0607284400907744E+01    2.5492800418970397E+01    4.0724220972308522E+00
C    1.1252261269735856E+01    2.6767026954206912E+01    4.1379852257903043E+00
C    1.2680644330929567E+01    2.6731399962389826E+01    4.1522102855374721E+00
C    9.1391708248397183E+00    2.8021679938743912E+01    4.0958777434624167E+00
C    1.0553291935265852E+01    2.8021529907150629E+01    4.1763056559013227E+00
C    1.1229107997635854E+01    1.6943136423609392E+01    4.1952699380847625E+00
C    1.2645234633850150E+01    1.6935238459783296E+01    4.1036483674759667E+00
C    1.3346829808171263E+01    1.8164321560077077E+01    4.0691285640636874E+00
C    1.4796231032438810E+01    1.8119484444167114E+01    4.0554202187499975E+00
C    1.5530006317508633E+01    1.9353960238047023E+01    4.0102841057659120E+00
C    1.6984384548126801E+01    1.9346865053434740E+01    4.0015941117846126E+00
C    1.3396724089879443E+01    2.0581037257567239E+01    4.2150464661299862E+00
C    1.4860466560786167E+01    2.0584970420286464E+01    4.0911380474923345E+00
C    1.5559174551562837E+01    2.1795230031315064E+01    3.9931390207171735E+00
C    1.6967340730516103E+01    2.1815313937639054E+01    4.0133861879567698E+00
C    1.3456138379385902E+01    2.3019451245129698E+01    4.1221643270702035E+00
C    1.4875550215023852E+01    2.3042533561810934E+01    4.0489024845993962E+00
C    1.5565724653567985E+01    2.4314209093376437E+01    4.0459915645658890E+00
C    1.6984224442000450E+01    2.4322014778985825E+01    4.0067754029419049E+00
C    1.3422261365984626E+01    2.5534882652506802E+01    4.1309917358381103E+00
C    1.4859904059033749E+01    2.5549074645745517E+01    4.1076388398112647E+00
C    1.5576210049212010E+01    2.6787639913728007E+01    4.1227192901195835E+00
C    1.6994522291237356E+01    2.6803644619065363E+01    4.0874936473388965E+00
C    1.3404529457370558E+01    2.7986025772144224E+01    4.1670251612776656E+00
C    1.4846334398908333E+01    2.8003939802446382E+01    4.2413910237524375E+00
C    1.5440228678420072E+01    1.6878977882471649E+01    4.0094276762459220E+00
C    1.6907644926900051E+01    1.6896233840092624E+01    3.9743152306390899E+00
C    1.7657496872941323E+01    1.8099423418740155E+01    3.9284973535671153E+00
C    1.9097912730147424E+01    1.8116891367465595E+01    3.8213887767583388E+00
C    1.9808840528839369E+01    1.9352564523620796E+01    3.7817021833534676E+00
C    2.1240867726331931E+01    1.9363018156569950E+01    3.6995042493361434E+00
C    1.7699902351532987E+01    2.0603335466658049E+01    3.9621570423036325E+00
C    1.9125407743289109E+01    2.0613514692067866E+01    3.8738569462136212E+00
C    1.9841720592032292E+01    2.1872887833763667E+01    3.8302236810849819E+00
C    2.1253676654799193E+01    2.1857035160385308E+01    3.7443493302495465E+00
C    1.7699291044998446E+01    2.3078198471002494E+01    4.0068029227147859E+00
C    1.9125932696420662E+01    2.3094666698731974E+01    3.9157264154139462E+00
C    1.9842771374346260E+01    2.4301724134722935E+01    3.8326459359662812E+00
C    2.1244440492267696E+01    2.4301252458664802E+01    3.6214270067688816E+00
C    1.7708887038470575E+01    2.5575734238768149E+01    4.0048999059625690E+00
C    1.9130048728780604E+01    2.5552163013292429E+01    3.9415663838698740E+00
C    1.9818760206725607E+01    2.6758845531255332E+01    3.9285028028759799E+00
C    2.1243863828535428E+01    2.6742895845969599E+01    3.8615563418400258E+00
C    1.7705054487492117E+01    2.8056230368212422E+01    4.0142280081591224E+00
C    1.9099130582851199E+01    2.8018006196044617E+01    3.9155758725003955E+00
C    1.9781009829699208E+01    1.6891041610240389E+01    3.7189784951170073E+00
C    2.1201835518211379E+01    1.6860715511403335E+01    3.7887645951447357E+00
C    2.1915533866841631E+01    5.8219418728321299E+00    3.6848135275542808E+00
C    2.3353247602851919E+01    5.8190587099015989E+00    3.6806676348454852E+00
C    2.4046053813821707E+01    7.0612189493673743E+00    3.6964049201843108E+00
C    2.5459931792729357E+01    7.0327219612697833E+00    3.7169221447848613E+00
C    2.1901146663181724E+01    8.3123191890896457E+00    3.7479706421078749E+00
C    2.3313849523059062E+01    8.2982958337594770E+00    3.7807124829891920E+00
C    2.4032561161524296E+01    9.5098106334993808E+00    3.7335180447024472E+00
C    2.5468606431993699E+01    9.5037544900107847E+00    3.7825149892959540E+00
C    2.1920828946354398E+01    1.0783645118491874E+01    3.7490131985569239E+00
C    2.3360392397638996E+01    1.0773272043056680E+01    3.6569467305479688E+00
C    2.4069099763884768E+01    1.1975360905576848E+01    3.5865058868343298E+00
C    2.5465131548740143E+01    1.1967958332353852E+01    3.7905587726842258E+00
C    2.1921109579614861E+01    1.3242313860475527E+01    3.6639909129877819E+00
C    2.3372034093262524E+01    1.3223371735337098E+01    3.6273855296045134E+00
C    2.4087631263293428E+01    1.4435215378675654E+01    3.7095737361795886E+00
C    2.5520927118956411E+01    1.4407589038719703E+01    3.7234401232476442E+00
C    2.1932878769195643E+01    1.5658386976483817E+01    3.7514620418972404E+00
C    2.3366610869404251E+01    1.5663159673508979E+01    3.8016862622311347E+00
C    2.4040541285983249E+01    4.5417156450123741E+00    3.7793819600079765E+00
C    2.5472173303410660E+01    4.5704207373525314E+00    3.6988561211406208E+00
C    2.6198487432741022E+01    5.8043170446358321E+00    3.6848518893986437E+00
C    2.7610252711347087E+01    5.8234347141320253E+00    3.8182544652213211E+00
C    2.8327504588634422E+01    7.0514793464190175E+00    3.9043016703661673E+00
C    2.9774135361634478E+01    7.0390570188334394E+00    3.9916509683585852E+00
C    2.6180617706623625E+01    8.2684985764805425E+00    3.8101079562730531E+00
C    2.7614536915807722E+01    8.2791020317653015E+00    3.8979743059208962E+00
C    2.8310565714942495E+01    9.5169670980905305E+00    4.0294301344481687E+00
C    2.9737434649700411E+01    9.5232208214970679E+00    3.9793222130281825E+00
C    2.6155662045102421E+01    1.0732134278257485E+01    3.9785629140419978E+00
C    2.7582149438375616E+01    1.0712636097603017E+01    4.0963267063062512E+00
C    2.8331179857580565E+01    1.1918558202299765E+01    4.1333498477550892E+00
C    2.9747367897289188E+01    1.1936010731337758E+01    4.2328719560365649E+00
C    2.6200303709712653E+01    1.3188544448378423E+01    3.8258343553240697E+00
C    2.7623092474925638E+01    1.3184853549539309E+01    4.0019964348595591E+00
C    2.8300323796182987E+01    1.4391825920657505E+01    4.0437306604386087E+00
C    2.9731054782406773E+01    1.4392619267149511E+01    4.1441479690125451E+00
C    2.6217000407966601E+01    1.5684011829748078E+01    3.7641751982955727E+00
C    2.7620219296231074E+01    1.5647521189646323E+01    3.8299777744540084E+00
C    2.8345716133531969E+01    4.5951689354888643E+00    3.7658082049405337E+00
C    2.9774859976194644E+01    4.6014313258442705E+00    3.9611415472661191E+00
C    3.0486596783431938E+01    5.8223318187438657E+00    4.0279820489951694E+00
C    3.1908278841286297E+01    5.7797502138907637E+00    4.1641606275647920E+00
C    3.2587134300859532E+01    7.0075173813495599E+00    4.1602992081049015E+00
C    3.4030748907107181E+01    7.0332662762652047E+00    4.1885181611058089E+00
C    3.0494511663598256E+01    8.2835077462046467E+00    4.0140054491860031E+00
C    3.1895128011416453E+01    8.2281292461631566E+00    4.0603346416421147E+00
C    3.2593229663303426E+01    9.4644580325393370E+00    4.0970003727103670E+00
C    3.4018293648039240E+01    9.4856321781877764E+00    4.1283022553560418E+00
C    3.0466649037549413E+01    1.0731012787707778E+01    4.1262404581448715E+00
C    3.1882932199157825E+01    1.0725299617965611E+01    4.0708444670081958E+00
C    3.2621973077395495E+01    1.1946218952348167E+01    4.1571143250655700E+00
C    3.4033780958257950E+01    1.1936834731129807E+01    4.1631678330800943E+00
C    3.0473866040262873E+01    1.3163696794764661E+01    4.1804432245307641E+00
C    3.1905386227940671E+01    1.3154056900078654E+01    4.2342974687905155E+00
C    3.2604324982181112E+01    1.4424035573154571E+01    4.3432279349024618E+00
C    3.4033477285962050E+01    1.4466670159980557E+01    4.2532709214008992E+00
C    3.0413499326312021E+01    1.5611651383795511E+01    4.1339437528586043E+00
C    3.1866734722828312E+01    1.5660753815398108E+01    4.2248548475094632E+00
C    3.2639871152389297E+01    4.5827867494674619E+00    4.1486033434297784E+00
C    3.4041248399641262E+01    4.6195459556392207E+00    4.2374896283804322E+00
C    2.1938772401899183E+01    1.8122756464030385E+01    3.7595815119011999E+00
C    2.3356816696601651E+01    1.8090480094973586E+01    3.6756979985085847E+00
C    2.4074473045237379E+01    1.9346603118312508E+01    3.6521042694992429E+00
C    2.5504610472655770E+01    1.9343939196126481E+01    3.7064563038032405E+00
C    2.1923848852712684E+01    2.0591478020155002E+01    3.6492004677387579E+00
C    2.3328210199547524E+01    2.0579359401168333E+01    3.6372280532474921E+00
C    2.4105699902802314E+01    2.1771378048689115E+01    3.7323012791539032E+00
C    2.5523763938986292E+01    2.1804491337161558E+01    3.7707603067593731E+00
C    2.1940000206280470E+01    2.3052336372037217E+01    3.6311677358305468E+00
C    2.3363809749522073E+01    2.3035341833203933E+01    3.6925430992318167E+00
C    2.4096473305982183E+01    2.4306411521057303E+01    3.7065610105989411E+00
C    2.5498219304386151E+01    2.4264237949546644E+01    3.7972880919904135E+00
C    2.1935344046899068E+01    2.5526415335678777E+01    3.7541826255550448E+00
C    2.3366235098834753E+01    2.5549461147324106E+01    3.7777863764573403E+00
C    2.4070292273926650E+01    2.6740974115349495E+01    3.7984874019403767E+00
C    2.5507518433326307E+01    2.6776764575787670E+01    3.7560620246030902E+00
C    2.1924520040334325E+01    2.8007020404363306E+01    3.8500880524311465E+00
C    2.3318766351883124E+01    2.7967309605418354E+01    3.8195255042196279E+00
C    2.4065491840197982E+01    1.6886957141831228E+01    3.7858070461183124E+00
C    2.5509020417747500E+01    1.6894190064942006E+01    3.7393442068342408E+00
C    2.6210228907580543E+01    1.8110424704057522E+01    3.7624909027133233E+00
C    2.7608961818967011E+01    1.8052900962722219E+01    3.8707292006744867E+00
C    2.8328787986420608E+01    1.9299840980590069E+01    3.8675643986616137E+00
C    2.9720872376152748E+01    1.9343384378947725E+01    3.9534118618614511E+00
C    2.6216569048215852E+01    2.0578161708544624E+01    3.7556812014215173E+00
C    2.7659637637724234E+01    2.0541560057575978E+01    3.8040734400563641E+00
C    2.8344126703997421E+01    2.1790490795943590E+01    3.8442753238887213E+00
C    2.9769212030654074E+01    2.1804286183949998E+01    3.8315135319740472E+00
C    2.6247653825249714E+01    2.3048541427259511E+01    3.8243198346778167E+00
C    2.7658600398254119E+01    2.3056143823753597E+01    3.9106315334885511E+00
C    2.8366997112189281E+01    2.4263451276883401E+01    3.8651787164781548E+00
C    2.9790218978846966E+01    2.4294179465406337E+01    3.8926309679281004E+00
C    2.6210787858631289E+01    2.5499082864684969E+01    3.8032479024618429E+00
C    2.7628087450786495E+01    2.5502894132430843E+01    3.8023108629283437E+00
C    2.8344729325450174E+01    2.6751904147555464E+01    3.8557417713994684E+00
C    2.9792623135516379E+01    2.6759778137218841E+01    3.9176555939730586E+00
C    2.6187298915983309E+01    2.8025063982400077E+01    3.8236351497021488E+00
C    2.7629539696984946E+01    2.8010915552987608E+01    3.8078474950496526E+00
C    2.8328577619695086E+01    1.6871077791842733E+01    3.9008273965004925E+00
C    2.9714817384114617E+01    1.6884257939340671E+01    4.0614167976981514E+00
C    3.0466344066914569E+01    1.8125151324982468E+01    4.0244583703063741E+00
C    3.1882083519208432E+01    1.8135002554516937E+01    4.0338254119466459E+00
C    3.2606497375253014E+01    1.9389044377895587E+01    4.0164499631845336E+00
C    3.4036899764278786E+01    1.9401577109132134E+01    4.2074508289962935E+00
C    3.0462946418808901E+01    2.0569954741074156E+01    3.8949610893381053E+00
C    3.1909726395954706E+01    2.0603747460429304E+01    3.9937627099474677E+00
C    3.2647119399063364E+01    2.1854190861220012E+01    4.0281130361123747E+00
C    3.4079088070948913E+01    2.1857430092890265E+01    4.0740451928436165E+00
C    3.0479481464434308E+01    2.3051281656984379E+01    3.8176758646706488E+00
C    3.1886539317670046E+01    2.3070397194834946E+01    3.9026676273605343E+00
C    3.2633883594099522E+01    2.4310209016190687E+01    3.9315303810341300E+00
C    3.4063004813784602E+01    2.4272341601525302E+01    3.9621947202689403E+00
C    3.0520207158103677E+01    2.5523933477767375E+01    3.9238817603726539E+00
C    3.1957239047976195E+01    2.5541811752419495E+01    3.9718388512650602E+00
C    3.2672014864039106E+01    2.6762778587611233E+01    4.0150929693067861E+00
C    3.4107609822197226E+01    2.6774539047242587E+01    4.0522177334416307E+00
C    3.0502286005652120E+01    2.7993239402595847E+01    3.9697741969697860E+00
C    3.1924666221133251E+01    2.8009109228293578E+01    4.0893798568725712E+00
C    3.2579468370181445E+01    1.6915985737599001E+01    4.1199714205544629E+00
C    3.4034817073789355E+01    1.6917133973415304E+01    4.1638617340699895E+00
O    3.8595786470516668E+02    7.2367062141856948E+01    1.1406803626594611E+01
H    3.8660729282828169E+02    7.1909136271090617E+01    1.2006316372455991E+01
H    3.8653848692523906E+02    7.3120582480105597E+01    1.1072329040088800E+01
O    4.1871845095951011E+02   -4.2543366738252260E+01    8.0888664909344694E+00
H    4.1853107753853902E+02   -4.1550010434346063E+01    7.8965433748420617E+00
H    4.1952026630032503E+02   -4.2832840458805670E+01    7.5907503810167345E+00
O    3.7070139739672254E+02    5.1772124051760443E+01    8.3187278984261912E+00
H    3.7028960670699058E+02    5.1104501621433009E+01    7.7034774379919542E+00
H    3.7167408437796462E+02    5.1865395344377177E+01    8.0782209998786279E+00
O    4.6481219028189304E+02    1.2507622537184993E+01    7.3523887321880688E+00
H    4.6470238300538080E+02    1.1558242818246645E+01    7.0745513792931716E+00
H    4.6429104346301148E+02    1.2587152591036727E+01    8.2119281368944979E+00
O    3.8809766437660949E+02    9.6157962009486411E+01    1.3076214669024392E+01
H    3.8868549249443186E+02    9.5572156828006939E+01    1.2645754621737787E+01
H    3.8803128521631515E+02    9.5893410140642544E+01    1.4016378102147252E+01
O    3.5193575362097226E+02   -2.9842510068176637E+01    2.2497156176139004E+01
H    3.5278626661838683E+02   -2.9279025999455563E+01    2.2178305991269191E+01
H    3.5211421098391145E+02   -2.9769281502387031E+01    2.3468687253857553E+01
O    4.3530561638150374E+02    4.4033693249167065E+01    1.6855600379985813E+01
H    4.3531155752823821E+02    4.4789599026325689E+01    1.6138412326680065E+01
H    4.3469583077037447E+02    4.3439389902023493E+01    1.6370208350636357E+01
O    4.2944847290550638E+02    4.1319174484622721E+01    1.7525094026078545E+01
H    4.2876482043370436E+02    4.0819962263171028E+01    1.8008205419674997E+01
H    4.2919119871416575E+02    4.2319936325803681E+01    1.7649288221588851E+01
O    2.7942563763479006E+02    1.0265240290081120E+02    1.2382869276407726E+01
H    2.8034752212075932E+02    1.0303703432312999E+02    1.2538774650997462E+01
H    2.7932871023354960E+02    1.0181106700071302E+02    1.2866470477543626E+01
O    4.6843776639931235E+02    1.4019341241085809E+02    1.0097909204328138E+01
H    4.6789098562726008E+02    1.4036245858197367E+02    1.0891186496647457E+01
H    4.6898740270553191E+02    1.4096235769403640E+02    1.0114875949065816E+01
O    3.7810637098654951E+02    7.4125163095986935E+00    6.9361966614084389E+00
H    3.7743993702754835E+02    8.1592560952360955E+00    6.9367238720368531E+00
H    3.7759061440491558E+02    6.6122564077873136E+00    6.5807417969332667E+00
O    2.8966162729737232E+02   -1.2780688555024167E+00    1.2796692717919598E+01
H    2.8908038867021611E+02   -1.1840016286410944E+00    1.3547901669359268E+01
H    2.9018787322507762E+02   -3.5424253164273473E-01    1.2743972029200531E+01
O    3.3533327476540262E+02   -5.6650840203707133E+01    7.0920857618012541E+00
H    3.3466297660382099E+02   -5.7156104659375046E+01    7.6771537550770939E+00
H    3.3485921337358133E+02   -5.6767724926817493E+01    6.1576994993814544E+00
O    4.4321370888759350E+02   -5.8227350032131135E+01    2.0036008394288096E+01
H    4.4382409975039860E+02   -5.8702265931253130E+01    2.0675252516126601E+01
H    4.4328498523009546E+02   -5.7243777108559961E+01    2.0109094518820960E+01
O    3.2680463325859694E+02    2.0414473673972410E+02    1.7721239516274071E+01
H    3.2747209689091477E+02    2.0491459007345156E+02    1.7824814579018078E+01
H    3.2662202930725175E+02    2.0374458160340669E+02    1.8588759254987149E+01
O    4.2959336810164444E+02    3.4335155887687975E+01    1.1077936844574289E+01
H    4.2983601770605230E+02    3.3965130867958685E+01    1.1932879909096117E+01
H    4.3047034255697298E+02    3.4173968540328552E+01    1.0647435083467503E+01
O    3.4519094123831400E+02    7.3301189834319871E+01    1.9150844642418274E+01
H    3.4537593181173389E+02    7.3338409663796568E+01    1.8197771155730813E+01
H    3.4532956929978627E+02    7.4178110287068662E+01    1.9564587204511820E+01
O    3.4431544518796943E+02    6.8256014348287366E+01    1.4517558264502354E+01
H    3.4483116997608005E+02    6.7417749509021206E+01    1.4818029918366683E+01
H    3.4464858220851909E+02    6.8600361573637457E+01    1.3623537309184522E+01
O    3.8451112416745752E+02    1.5831008227219629E+01    8.5563285989638249E+00
H    3.8404425337490835E+02    1.5224162272225451E+01    7.9551790592328508E+00