 # Version information for this restart file 
 # current date 2020-04-19 00:16:53.433
 # current working dir /scratch/snx3000/gtocci/gtocci/MEMBRANES/AIMD_US_IONS_GRA/us_aimd_new/us_23
 # Program compiled at                              Fri Nov 22 15:19:42 CET 2019
 # Program compiled on                                                  daint102
 # Program compiled for                                   CRAY_XC50-gfortran_gpu
 # Source code revision number                                       git:a698b45
 &GLOBAL
   PRINT_LEVEL  LOW
   PROJECT_NAME GRAS
   RUN_TYPE  MD
   WALLTIME 86400
 &END GLOBAL
 &MOTION
   &MD
     ENSEMBLE  NVT
     STEPS  2000
     TIMESTEP     9.9999999999999989E-01
     STEP_START_VAL  76212
     TIME_START_VAL     7.6211999999936204E+04
     ECONS_START_VAL    -8.3019255071764492E+03
     TEMPERATURE     3.0000000000000000E+02
     TEMP_KIND  T
     &BAROSTAT
       PRESSURE     1.0000000000000000E+00
       TIMECON     9.9999999999999986E+01
       VIRIAL  Z
     &END BAROSTAT
     &THERMOSTAT
       TYPE  NOSE
       REGION  GLOBAL
       &NOSE
         LENGTH  4
         TIMECON     9.9999999999999986E+01
         MTS  2
         &COORD
               3.3855350525868910E-02    3.2854212890005279E+01   -5.2856495879010808E+01    1.5380494831366711E+01
         &END COORD
         &VELOCITY
              -1.2341883883133173E-06    7.6735808054447617E-05   -2.6704794346403527E-04    1.5481421345714942E-04
         &END VELOCITY
         &MASS
               7.0145132684705392E+07    1.6237299232570693E+04    1.6237299232570693E+04    1.6237299232570693E+04
         &END MASS
         &FORCE
              -1.2976950690980813E-09   -5.1929699225804203E-08   -5.2621629612336043E-08    1.2804590258265508E-08
         &END FORCE
       &END NOSE
     &END THERMOSTAT
     &AVERAGES  T
       &RESTART_AVERAGES
         ITIMES_START  1
         AVECPU     3.0906306907487558E+01
         AVEHUGONIOT     0.0000000000000000E+00
         AVETEMP_BARO     0.0000000000000000E+00
         AVEPOT    -8.3067156609220601E+03
         AVEKIN     2.0520029876878478E+00
         AVETEMP     2.9997444234975075E+02
         AVEKIN_QM     0.0000000000000000E+00
         AVETEMP_QM     0.0000000000000000E+00
         AVEVOL     2.1331414786626332E+05
         AVECELL_A     4.8437460238121901E+01
         AVECELL_B     4.6608961231948342E+01
         AVECELL_C     9.4486306644281314E+01
         AVEALPHA     9.0000000000000043E+01
         AVEBETA     9.0000000000000043E+01
         AVEGAMMA     9.0000000000000043E+01
         AVE_ECONS    -5.5564663113397671E+02
         AVE_PRESS     0.0000000000000000E+00
         AVE_PXX     0.0000000000000000E+00
       &END RESTART_AVERAGES
     &END AVERAGES
     &PRINT
       &TEMP_KIND  SILENT
       &END TEMP_KIND
     &END PRINT
   &END MD
   &FREE_ENERGY
     &METADYN
       MIN_DISP    -1.0000000000000000E+00
       OLD_HILL_NUMBER  0
       OLD_HILL_STEP  0
       DO_HILLS  F
       STEP_START_VAL  76212
       NHILLS_START_VAL  0
       &METAVAR
         SCALE     1.0000000000000000E+00
         COLVAR  1
       &END METAVAR
       &PRINT
         &COLVAR  SILENT
           COMMON_ITERATION_LEVELS  3
           &EACH
             MD  1
           &END EACH
         &END COLVAR
       &END PRINT
     &END METADYN
   &END FREE_ENERGY
   &CONSTRAINT
     &COLLECTIVE
       COLVAR  1
       INTERMOLECULAR  T
       &RESTRAINT
         K     4.4625385281452931E-04
       &END RESTRAINT
     &END COLLECTIVE
     &COLVAR_RESTART
           2.1731850528184900E+01
     &END COLVAR_RESTART
   &END CONSTRAINT
   &PRINT
     &TRAJECTORY  SILENT
       &EACH
         MD  1
       &END EACH
     &END TRAJECTORY
     &VELOCITIES  SILENT
       &EACH
         MD  1
       &END EACH
     &END VELOCITIES
     &FORCES  SILENT
       UNIT eV*angstrom^-1
       &EACH
         MD  1
       &END EACH
     &END FORCES
     &RESTART  SILENT
       &EACH
         MD  1
       &END EACH
     &END RESTART
     &RESTART_HISTORY  SILENT
       &EACH
         MD  100
       &END EACH
     &END RESTART_HISTORY
   &END PRINT
 &END MOTION
 &FORCE_EVAL
   METHOD  QS
   &DFT
     BASIS_SET_FILE_NAME /users/gtocci/scratch_daint_3000/data_cp2k//BASIS_MOLOPT
     POTENTIAL_FILE_NAME /users/gtocci/scratch_daint_3000/data_cp2k//GTH_POTENTIALS
     WFN_RESTART_FILE_NAME ./GRAS-RESTART.wfn
     CHARGE  -1
     &SCF
       MAX_SCF  10
       EPS_SCF     9.9999999999999995E-07
       SCF_GUESS  RESTART
       &OT  T
         MINIMIZER  DIIS
         PRECONDITIONER  FULL_KINETIC
       &END OT
       &OUTER_SCF  T
         EPS_SCF     9.9999999999999995E-07
         MAX_SCF  30
       &END OUTER_SCF
       &PRINT
         &RESTART  SILENT
           ADD_LAST  NUMERIC
           &EACH
             QS_SCF  50
           &END EACH
         &END RESTART
       &END PRINT
     &END SCF
     &QS
       MAP_CONSISTENT  T
       EXTRAPOLATION  ASPC
       EXTRAPOLATION_ORDER  4
     &END QS
     &MGRID
       NGRIDS  5
       CUTOFF     4.6000000000000000E+02
     &END MGRID
     &XC
       DENSITY_CUTOFF     1.0000000000000000E-10
       GRADIENT_CUTOFF     1.0000000000000000E-10
       TAU_CUTOFF     1.0000000000000000E-10
       &XC_GRID
         XC_DERIV  SPLINE2_SMOOTH
       &END XC_GRID
       &XC_FUNCTIONAL  NO_SHORTCUT
         &LIBXC  T
           FUNCTIONAL XC_GGA_X_OPTB88_VDW
         &END LIBXC
         &VWN  T
         &END VWN
       &END XC_FUNCTIONAL
       &VDW_POTENTIAL
         POTENTIAL_TYPE  NON_LOCAL
         &NON_LOCAL
           TYPE  DRSLL
           VERBOSE_OUTPUT  T
           KERNEL_FILE_NAME /users/gtocci/scratch_daint_3000/data_cp2k//vdW_kernel_table.dat
         &END NON_LOCAL
       &END VDW_POTENTIAL
     &END XC
     &REAL_TIME_PROPAGATION
       INITIAL_WFN  SCF_WFN
     &END REAL_TIME_PROPAGATION
     &PRINT
       &MULLIKEN  SILENT
         FILENAME =GRAS.mulliken
       &END MULLIKEN
     &END PRINT
   &END DFT
   &SUBSYS
     &CELL
       A     2.5632000000000001E+01    0.0000000000000000E+00    0.0000000000000000E+00
       B     0.0000000000000000E+00    2.4664400000000022E+01    0.0000000000000000E+00
       C     0.0000000000000000E+00    0.0000000000000000E+00    5.0000000000000028E+01
       MULTIPLE_UNIT_CELL  1 1 1
     &END CELL
     &COORD
C   -3.1426844582492812E+00   -1.5701586501892532E+01   -9.7443817913231392E+00
C   -1.7057005099441431E+00   -1.5735393745023352E+01   -9.8719911194866281E+00
C   -1.0037789614021322E+00   -1.4522466523182102E+01   -9.8939795048024273E+00
C    4.3039883903684406E-01   -1.4550603159596001E+01   -9.9019710153533129E+00
C   -3.0883476508503169E+00   -1.3235136493295057E+01   -9.7485489746495393E+00
C   -1.6825847788095940E+00   -1.3280489879255741E+01   -9.8218875591593573E+00
C   -9.6563137783539577E-01   -1.2033591256546408E+01   -9.7623362930803044E+00
C    4.5798647689922456E-01   -1.2044266173970199E+01   -9.8597329356196717E+00
C   -3.1012100181461024E+00   -1.0790907154004090E+01   -9.7678324497827749E+00
C   -1.6833355843804769E+00   -1.0840297148276195E+01   -9.8128920546976950E+00
C   -9.5298794344290283E-01   -9.6148721034235596E+00   -9.8347994093527795E+00
C    4.7534000085216466E-01   -9.6085812982789225E+00   -9.8845390316931230E+00
C   -3.1450781218483415E+00   -8.3834376584604904E+00   -1.0061165412681781E+01
C   -1.7055015373766347E+00   -8.3940093964998095E+00   -9.9679520257947392E+00
C   -1.0094907476227815E+00   -7.1338401635197437E+00   -9.9357224207819979E+00
C    4.1690479097267802E-01   -7.0981066227058243E+00   -9.9004298033249825E+00
C   -3.1581986134067401E+00   -5.9195692749722078E+00   -1.0072528082774737E+01
C   -1.7674577530492022E+00   -5.8802106587976839E+00   -9.9370510980360081E+00
C   -9.8513840485953497E-01   -1.6995946521835780E+01   -9.8870296160684337E+00
C    4.3364335418963584E-01   -1.7000842161948029E+01   -9.8038687268595464E+00
C    1.1801992843027709E+00   -1.5754254364741975E+01   -9.8662690568867788E+00
C    2.6165671141913887E+00   -1.5734948551424408E+01   -9.8178284453896794E+00
C    3.2661041493439318E+00   -1.4480025958630806E+01   -9.8501475880755205E+00
C    4.6670033108927136E+00   -1.4468417307326520E+01   -9.7939660561039634E+00
C    1.1459412923452097E+00   -1.3306729530576003E+01   -9.9876624349278487E+00
C    2.5181199425955931E+00   -1.3280670093900307E+01   -9.7771888877438276E+00
C    3.2760401327070090E+00   -1.2016830084347786E+01   -9.7680173070973542E+00
C    4.6803604997410400E+00   -1.1967436012167335E+01   -9.7427294045530086E+00
C    1.1899989080088527E+00   -1.0848771001994484E+01   -9.8658602334441010E+00
C    2.5942740557067392E+00   -1.0776977990483550E+01   -9.8943630241131117E+00
C    3.2944719052051590E+00   -9.5772056946581721E+00   -1.0011536727690396E+01
C    4.6933216500643233E+00   -9.5602497314666230E+00   -9.8758633468450707E+00
C    1.1564747485613742E+00   -8.3645383336452888E+00   -9.9469687106171545E+00
C    2.5341210877230855E+00   -8.3247894979246961E+00   -9.9741436763147640E+00
C    3.2411093161283371E+00   -7.1005538071094225E+00   -9.8429399913514697E+00
C    4.6535606735027484E+00   -7.0665950639324837E+00   -9.8404806688680893E+00
C    1.0925800467041284E+00   -5.8352405285173523E+00   -9.8973518833024805E+00
C    2.5177949625254250E+00   -5.8470297950187069E+00   -9.8681905812990784E+00
C    3.2361201129398971E+00   -1.6976758664944231E+01   -9.7956814449422716E+00
C    4.6780281460781090E+00   -1.6973441832144516E+01   -9.6607923120013091E+00
C    5.3624326000808935E+00   -1.5712283282605423E+01   -9.7577555810816854E+00
C    6.8105233000139824E+00   -1.5706652918085222E+01   -9.6581230691536071E+00
C    7.5183038353263827E+00   -1.4465911551640698E+01   -9.6887897713325302E+00
C    8.9199646073757020E+00   -1.4500338444034963E+01   -9.6747661731830128E+00
C    5.4192051106004513E+00   -1.3234181132857257E+01   -9.8174458521214643E+00
C    6.8107898369118081E+00   -1.3269154915512495E+01   -9.8022930614957264E+00
C    7.5207861088004719E+00   -1.2015067005401685E+01   -9.6727811219770938E+00
C    8.9425524572007937E+00   -1.2034178167604637E+01   -9.5294968820446329E+00
C    5.4320175217631208E+00   -1.0746527514566967E+01   -9.7412510925878877E+00
C    6.8306107235648481E+00   -1.0775560093195685E+01   -9.6937721318533061E+00
C    7.5569843122737694E+00   -9.5102217731213123E+00   -9.5997114924130198E+00
C    8.9642700383933374E+00   -9.5510679673216909E+00   -9.4937603501938845E+00
C    5.3965098815605836E+00   -8.2978043671333754E+00   -9.7811491014894063E+00
C    6.8388532502802359E+00   -8.3040560469993441E+00   -9.6922666563991218E+00
C    7.5520678923016931E+00   -7.0854332929012349E+00   -9.5983017210695483E+00
C    8.9911293677550734E+00   -7.1211760520266090E+00   -9.4217312788967273E+00
C    5.4152063823951631E+00   -5.8298213535334096E+00   -9.7813777921382883E+00
C    6.8370695238169663E+00   -5.8637904941599777E+00   -9.7034655212722427E+00
C    7.5018170565177593E+00   -1.6963271117259090E+01   -9.5342928195434240E+00
C    8.9259872687043167E+00   -1.6958939466624056E+01   -9.5423660747714614E+00
C   -3.1448824510757474E+00   -3.4144913836815727E+00   -1.0090109729092653E+01
C   -1.7321758900636890E+00   -3.3759358210833166E+00   -1.0079852281824010E+01
C   -9.6524162505703159E-01   -2.1764941752277829E+00   -9.9079806412763602E+00
C    4.1347466820525430E-01   -2.1702288523534152E+00   -9.7637680079406106E+00
C   -3.1415814952554575E+00   -9.4165150171642320E-01   -1.0016217714839327E+01
C   -1.7014926552164891E+00   -9.3708896324002744E-01   -9.9031445138166259E+00
C   -1.0070360414522361E+00    2.8733425676158902E-01   -9.8898799057628075E+00
C    3.8331304927646470E-01    3.0206609058091832E-01   -9.7375123759707822E+00
C   -3.1521788173505341E+00    1.5318442566433608E+00   -9.8103462172895775E+00
C   -1.7099386008652639E+00    1.5253841072665240E+00   -9.7806593087074827E+00
C   -1.0183240474784376E+00    2.7587317133955866E+00   -9.7005583418160608E+00
C    4.1340881274122759E-01    2.7247405065162278E+00   -9.8228611113971880E+00
C   -3.1808861858278066E+00    4.0157085860201160E+00   -9.8577772937332728E+00
C   -1.7187934518271069E+00    4.0019043905131957E+00   -9.6798917198584640E+00
C   -1.0488528360987170E+00    5.2053405791457115E+00   -9.7505044206670082E+00
C    3.6688557236061031E-01    5.1964598690622488E+00   -9.7561413683942835E+00
C   -3.1614026710122416E+00    6.4440060954689526E+00   -9.7651606491410448E+00
C   -1.7318715929553647E+00    6.4795561676852147E+00   -9.8118377763643760E+00
C   -1.0326849898955390E+00   -4.5877838076852777E+00   -9.9426406823230895E+00
C    4.3714711153606967E-01   -4.5962128144709720E+00   -9.8957702802283283E+00
C    1.1769259099308587E+00   -3.4007610891596096E+00   -9.7873076689898397E+00
C    2.5719041561193361E+00   -3.3752195768947324E+00   -9.6907662749061103E+00
C    3.2492645027458935E+00   -2.1319915322272158E+00   -9.7177664609364189E+00
C    4.7119813342326795E+00   -2.1362102211865417E+00   -9.6803143276269878E+00
C    1.0961987110045137E+00   -9.5668668520767208E-01   -9.7097120555458556E+00
C    2.5268747798046625E+00   -9.3869057835528591E-01   -9.6244551769746778E+00
C    3.2532486290214706E+00    2.7525020776386172E-01   -9.5260376652726322E+00
C    4.6873677932379216E+00    2.7862243879646503E-01   -9.6679286583117516E+00
C    1.1212226268588281E+00    1.4442650593277329E+00   -9.7804032581748892E+00
C    2.5682142750637120E+00    1.5478934912373421E+00   -9.6892670366205991E+00
C    3.2505017604083046E+00    2.7684171434346920E+00   -9.4884683567154564E+00
C    4.6690698536833644E+00    2.7382671583900118E+00   -9.5007570354697055E+00
C    1.1252309658081057E+00    4.0129638584421237E+00   -9.8126541104675695E+00
C    2.5272628590421125E+00    4.0349505298973538E+00   -9.5681767960235895E+00
C    3.2847849582931437E+00    5.2279442217212306E+00   -9.5917740680177310E+00
C    4.6974702073399737E+00    5.2106314526982116E+00   -9.4896053656248949E+00
C    1.1173325454799616E+00    6.3937473638334925E+00   -9.7326879433491662E+00
C    2.5453342537950343E+00    6.4505879790641618E+00   -9.7192804770864871E+00
C    3.2558935720388797E+00   -4.5664788556710203E+00   -9.7893090547874735E+00
C    4.6633211902376308E+00   -4.6005039882295442E+00   -9.7886828049754833E+00
C    5.4074244986017366E+00   -3.3859368209015441E+00   -9.7547580452123821E+00
C    6.8784443029463072E+00   -3.3964680836761816E+00   -9.7671344518479799E+00
C    7.5232502450087919E+00   -2.1588599351152946E+00   -9.8352459617127188E+00
C    8.9911410643959666E+00   -2.1360740322729637E+00   -9.8694336132220819E+00
C    5.4249535872978250E+00   -8.9870167544986901E-01   -9.7300414808801463E+00
C    6.8427821801113815E+00   -9.4698779140066647E-01   -9.8424080831512040E+00
C    7.5347074699288097E+00    3.0154752610256763E-01   -9.7043380213837391E+00
C    8.9439820998227404E+00    2.9415364325942472E-01   -9.8719711766315008E+00
C    5.4118248258768267E+00    1.4642363948028529E+00   -9.5431888206657991E+00
C    6.8470523570659783E+00    1.5236081370244223E+00   -9.5205499095206605E+00
C    7.5167409480142453E+00    2.7961793826759158E+00   -9.4885448118081399E+00
C    8.9411719825125893E+00    2.8196562857360559E+00   -9.4820216940016682E+00
C    5.3898097961995699E+00    3.9677081765883946E+00   -9.3731050890361711E+00
C    6.8368746497867363E+00    3.9886821257378817E+00   -9.4076644861561611E+00
C    7.5510418286002405E+00    5.2587690656042323E+00   -9.4149542177085443E+00
C    8.9128473686776086E+00    5.2655951579952909E+00   -9.4988966490655322E+00
C    5.3951854641725241E+00    6.4584294897567922E+00   -9.5588395544246012E+00
C    6.8244731378337340E+00    6.4690977556616138E+00   -9.4529244376578099E+00
C    7.5395292213999552E+00   -4.6405140780160297E+00   -9.6865442312634027E+00
C    8.9838374646075163E+00   -4.6910327183763982E+00   -9.6512101679145932E+00
C    9.6661761163324460E+00   -1.5740414254420326E+01   -9.4826329451149487E+00
C    1.1063198198185871E+01   -1.5746433020527764E+01   -9.4383313053932376E+00
C    1.1735570550181563E+01   -1.4464059418702444E+01   -9.3391684866811175E+00
C    1.3156696926660103E+01   -1.4513295623197328E+01   -9.2939182420431639E+00
C    9.6605153011191351E+00   -1.3291833444102275E+01   -9.6012587837425833E+00
C    1.1096767632094295E+01   -1.3247061270851255E+01   -9.4554540787271453E+00
C    1.1816942429185964E+01   -1.1999626638367882E+01   -9.3630939912082916E+00
C    1.3264263598521806E+01   -1.2043514031509774E+01   -9.2652120706718328E+00
C    9.6638034281118390E+00   -1.0813736990964911E+01   -9.4687493851325524E+00
C    1.1088397177070178E+01   -1.0775731251381313E+01   -9.4082668140542225E+00
C    1.1807976504777535E+01   -9.5553791091099036E+00   -9.3390572067824245E+00
C    1.3218241497594791E+01   -9.5525774090312918E+00   -9.3747152596562540E+00
C    9.7220274442359287E+00   -8.3375951893806324E+00   -9.4261547655029254E+00
C    1.1160613537223540E+01   -8.3154297995489550E+00   -9.3702475570598125E+00
C    1.1832418660155449E+01   -7.0775932226692637E+00   -9.3843379950841896E+00
C    1.3283562407352495E+01   -7.0645069054315410E+00   -9.4183529466584108E+00
C    9.7112205907827658E+00   -5.9096446388032460E+00   -9.3929196817388121E+00
C    1.1146949511752245E+01   -5.8540101190932035E+00   -9.3701211046778887E+00
C    1.1731178525732094E+01   -1.6922585830747746E+01   -9.2558583729735275E+00
C    1.3168399213574112E+01   -1.6965794660539999E+01   -9.2091721207130952E+00
C    1.3918771123631915E+01   -1.5743209620400995E+01   -9.2848162639483878E+00
C    1.5353295418965230E+01   -1.5669944955565468E+01   -9.1836317698094412E+00
C    1.6100069881227494E+01   -1.4500874881433830E+01   -9.3938538098769087E+00
C    1.7540528646817478E+01   -1.4477586414907252E+01   -9.3589209620808571E+00
C    1.3936139206425096E+01   -1.3283848461434918E+01   -9.2905104600812578E+00
C    1.5389918090725109E+01   -1.3268563998788009E+01   -9.4319524487686195E+00
C    1.6067917079785417E+01   -1.1995157659959442E+01   -9.4140851405683392E+00
C    1.7494327531148603E+01   -1.2027684881055265E+01   -9.3900473664561392E+00
C    1.3945754319295842E+01   -1.0743131653347426E+01   -9.2954613398013457E+00
C    1.5382803017068658E+01   -1.0747819500005765E+01   -9.3221456061077053E+00
C    1.6087240798600448E+01   -9.5844326308964671E+00   -9.2776863984061482E+00
C    1.7506521678272257E+01   -9.5942155539179765E+00   -9.5119481701465798E+00
C    1.3928420930901542E+01   -8.3183521698193932E+00   -9.3305455798038999E+00
C    1.5365300789872473E+01   -8.3471954011996292E+00   -9.2873336312815553E+00
C    1.6053206226769966E+01   -7.1119820690355242E+00   -9.4514431584877876E+00
C    1.7491319891115193E+01   -7.1102537638403724E+00   -9.5898778045909285E+00
C    1.3959996272934534E+01   -5.8433739262093072E+00   -9.4704724615929248E+00
C    1.5338633568728092E+01   -5.8618661723575762E+00   -9.4587541420530350E+00
C    1.6081371021708563E+01   -1.6911416896602475E+01   -9.2094615641110398E+00
C    1.7479676991773445E+01   -1.6915518046476571E+01   -9.2671963225148755E+00
C    1.8223697174433649E+01   -1.5709663722804846E+01   -9.3302300982750612E+00
C    1.9666843068871941E+01   -1.5712058518780605E+01   -9.5072148186299508E+00
C    2.0370345768847447E+01   -1.4477880035892275E+01   -9.5366033788330427E+00
C    2.1800144400034242E+01   -1.4493849899267815E+01   -9.6454431798100320E+00
C    1.8230086561049962E+01   -1.3242924677011047E+01   -9.4516192622632680E+00
C    1.9637332429889707E+01   -1.3230348967116711E+01   -9.4995134978815639E+00
C    2.0342918256151993E+01   -1.2034628682109735E+01   -9.5707701196459354E+00
C    2.1816778919618098E+01   -1.2024032743152949E+01   -9.7399418893414751E+00
C    1.8213390574363455E+01   -1.0814616340849760E+01   -9.5282670802842730E+00
C    1.9640983624727127E+01   -1.0830853558612151E+01   -9.5986343731955284E+00
C    2.0340060700734057E+01   -9.6300635682235605E+00   -9.7510389240328088E+00
C    2.1766607260667342E+01   -9.6027801386373817E+00   -9.9038261987761622E+00
C    1.8188291819296918E+01   -8.3353418298847259E+00   -9.6561396926846577E+00
C    1.9635996360151630E+01   -8.3553127430152205E+00   -9.8240191918959496E+00
C    2.0356182950863730E+01   -7.1258065282649623E+00   -9.9948683509816973E+00
C    2.1794490966033639E+01   -7.1576248167206629E+00   -1.0065445786709949E+01
C    1.8212437631922803E+01   -5.8805164406953114E+00   -9.7209748756182037E+00
C    1.9640181173012724E+01   -5.9389662583815523E+00   -9.8943236344996119E+00
C    2.0373656393456294E+01   -1.6970285562332208E+01   -9.4572633050812378E+00
C    2.1831691388850377E+01   -1.6952242494484491E+01   -9.5892822076569768E+00
C    9.6636994521170330E+00   -3.3812101361201798E+00   -9.7504020735836754E+00
C    1.1115831096223987E+01   -3.3811188134378383E+00   -9.6175374941365170E+00
C    1.1809849068191768E+01   -2.1302672219774967E+00   -9.6702126289178594E+00
C    1.3244041386001195E+01   -2.0785356824589463E+00   -9.5945267780426704E+00
C    9.7088196869228476E+00   -8.8439282572083566E-01   -9.8521162586435658E+00
C    1.1118247389361876E+01   -9.1410036432437258E-01   -9.8109801306155440E+00
C    1.1810206608290896E+01    3.4217694803820459E-01   -9.7184826687711343E+00
C    1.3237640516318621E+01    3.4013328711909491E-01   -9.5539720460050130E+00
C    9.6386579425711503E+00    1.5535085026668718E+00   -9.6498638356936652E+00
C    1.1136821002745013E+01    1.5805474525273464E+00   -9.6418239570207636E+00
C    1.1852517866060703E+01    2.8016990868713201E+00   -9.5605539554125887E+00
C    1.3290310919882048E+01    2.8446343350144772E+00   -9.5823874898820378E+00
C    9.6341102396054090E+00    4.0230290494286578E+00   -9.4640678176523494E+00
C    1.1133247321503466E+01    3.9964485723195668E+00   -9.4938975133768384E+00
C    1.1779103021088547E+01    5.2754335655845619E+00   -9.4206844766979572E+00
C    1.3213472838298536E+01    5.2432247634042346E+00   -9.3984951744621963E+00
C    9.6558281372161385E+00    6.5071880204458541E+00   -9.4710993548785911E+00
C    1.1066551656213175E+01    6.4875206687110394E+00   -9.3577625191213016E+00
C    1.1844787842120548E+01   -4.6092229649403089E+00   -9.4595513812535668E+00
C    1.3255362830789160E+01   -4.5764296377947771E+00   -9.4651008170398576E+00
C    1.3927524795811536E+01   -3.3315963102360202E+00   -9.5034448798033644E+00
C    1.5422512553237516E+01   -3.3864005807578934E+00   -9.5380255275274006E+00
C    1.6101546430296608E+01   -2.1463626497966128E+00   -9.5294258512879502E+00
C    1.7520166656429474E+01   -2.1792534572775111E+00   -9.6924450580636918E+00
C    1.3946296964439881E+01   -9.0665838051984626E-01   -9.5201412869429483E+00
C    1.5397960762831216E+01   -9.1017407697706565E-01   -9.4364824706468831E+00
C    1.6114606330511279E+01    3.3407670523848221E-01   -9.5034208042609141E+00
C    1.7500158005360806E+01    3.4217601059840058E-01   -9.7361955893773064E+00
C    1.3980252315597239E+01    1.5837270027093964E+00   -9.5389401889627337E+00
C    1.5415861774303245E+01    1.5855068631303988E+00   -9.4613008420787121E+00
C    1.6146938976411867E+01    2.8247507562845753E+00   -9.5359499217268962E+00
C    1.7570764805642451E+01    2.8260518693060703E+00   -9.5393225627858289E+00
C    1.3975079120414090E+01    4.0430345362676290E+00   -9.5369564385834753E+00
C    1.5426305989451938E+01    4.0452978904008203E+00   -9.5759074891760889E+00
C    1.6118851754739289E+01    5.2576572701868125E+00   -9.4120395799900294E+00
C    1.7533623991816526E+01    5.2840848368491402E+00   -9.4416780777008231E+00
C    1.3937336723373340E+01    6.4904121727838886E+00   -9.2373583590680202E+00
C    1.5407167097661022E+01    6.4916838467739879E+00   -9.1930417884712892E+00
C    1.6079801970339037E+01   -4.6612601576116575E+00   -9.4971932128537961E+00
C    1.7495349776708714E+01   -4.6755100475376681E+00   -9.6510348275203910E+00
C    1.8216583034245225E+01   -3.4385987483296439E+00   -9.7488222493390495E+00
C    1.9659956584983828E+01   -3.4372675181530594E+00   -9.9094261828408943E+00
C    2.0318516577372755E+01   -2.1497966676884293E+00   -9.8673684143610068E+00
C    2.1736135904281003E+01   -2.1343817609504621E+00   -9.9849610342682080E+00
C    1.8180626804962074E+01   -8.7856380262951517E-01   -9.7531710980874831E+00
C    1.9561990594577551E+01   -8.8244234095957064E-01   -9.9173193411562544E+00
C    2.0341426151877389E+01    3.1656159875188372E-01   -9.8759609467001201E+00
C    2.1778781771798812E+01    3.1193209272731182E-01   -9.9547726161958749E+00
C    1.8250112606925754E+01    1.5952723719960205E+00   -9.7570575730492699E+00
C    1.9632289743941243E+01    1.5863525051801972E+00   -9.8356820665110227E+00
C    2.0362811719886281E+01    2.7613051597879683E+00   -9.7142501514160795E+00
C    2.1770378276532760E+01    2.7707193932933349E+00   -9.8214940178305614E+00
C    1.8268948268332263E+01    4.0323413213351973E+00   -9.5261068374412599E+00
C    1.9702439930875407E+01    3.9874551140621324E+00   -9.5867167921794803E+00
C    2.0365550227366967E+01    5.2431369534456582E+00   -9.6031904294593300E+00
C    2.1744137621750841E+01    5.2474472445075984E+00   -9.7991360570313955E+00
C    1.8219919811074266E+01    6.5450364684904452E+00   -9.4095108911768417E+00
C    1.9656419419397594E+01    6.5039262635781006E+00   -9.4763421566042236E+00
C    2.0384208022105373E+01   -4.6710769941716839E+00   -9.9990130276853435E+00
C    2.1794442915137466E+01   -4.6366686787938045E+00   -1.0056443197225731E+01
O    1.7350825047492432E+02    6.3928412016030414E+01    8.5929663283208644E+00
H    1.7411577968402415E+02    6.3603355825733942E+01    7.9514507082684398E+00
H    1.7291593868239920E+02    6.3096765821659105E+01    8.6604259673338682E+00
O    1.7791069472291980E+02    4.6277371366389289E+01   -2.4562746078107462E+00
H    1.7833605835721281E+02    4.6103578370834157E+01   -1.5755174284639588E+00
H    1.7848539810412049E+02    4.6994195557213835E+01   -2.8795049333408449E+00
O    1.9869596303068511E+02    1.4119504248303662E+02   -1.4997947161932541E+00
H    1.9916723342852882E+02    1.4062280641640527E+02   -7.7895848373634147E-01
H    1.9935426622321745E+02    1.4132339926217682E+02   -2.1872299228859378E+00
O    2.8592141037805385E+02    4.9913125602796356E+01    3.7539153679262727E+00
H    2.8613164188213466E+02    4.9961275269276719E+01    4.7350796121364755E+00
H    2.8639930260443350E+02    4.9060397598130287E+01    3.5385093216929113E+00
O    1.2502653832448476E+02    1.1590539579610977E+02    2.1951338156823228E+00
H    1.2580623344024070E+02    1.1645047197224034E+02    2.4007270246589356E+00
H    1.2524265425868407E+02    1.1508970072333720E+02    2.6857650357396841E+00
O    1.5835979188042523E+02    9.2294870332615901E+01   -6.2479785241558021E+00
H    1.5921979974707946E+02    9.1763088594500303E+01   -6.2400834221996080E+00
H    1.5761071707805212E+02    9.1736075915928481E+01   -6.4931986110961306E+00
O    1.9912184867010379E+02    1.1285986770297059E+02    4.0686575389517801E+00
H    1.9851419778609340E+02    1.1352954224545759E+02    4.4767003427038450E+00
H    1.9861043685987735E+02    1.1209724426944130E+02    3.6711562314357877E+00
O    2.2142752260657880E+02    2.6021029189581004E+01    7.3160588813714189E-01
H    2.2189712225841231E+02    2.5537760263401101E+01    2.6849084074663326E-02
H    2.2144826599686007E+02    2.7025418730558886E+01    5.5882289625260617E-01
O    9.7008929300297012E+01    1.1939336041595480E+02    9.4069298777170278E+00
H    9.6130409966798524E+01    1.1895353315730941E+02    9.1700959330260474E+00
H    9.7673851598843441E+01    1.1862343246479820E+02    9.4770992617556793E+00
O    2.7956919157367957E+02    1.5774078953307011E+02    7.7083215946377912E+00
H    2.7916863554073882E+02    1.5841853126941811E+02    8.3376013911012681E+00
H    2.7996003961112916E+02    1.5838882648769800E+02    7.0456467081504881E+00
O    2.0943429718434035E+02    1.7044177064865809E+02   -2.2441975313596245E+00
H    2.1012428080901509E+02    1.6993410920358897E+02   -2.8012904570936890E+00
H    2.0976680986315802E+02    1.7120506895325144E+02   -1.8238907155053414E+00
O    6.8874608256041512E+01    7.1110406676388919E+01   -2.5779839119285857E+00
H    6.9264975290074204E+01    7.0535533735487405E+01   -1.8526890948270136E+00
H    6.9642855084965674E+01    7.1561164581748628E+01   -2.9262313053034514E+00
O    1.9867193373563398E+02    5.5083965262830723E+01    8.7621210399840510E-01
H    1.9835260154054563E+02    5.4111108063858026E+01    9.2009145984031415E-01
H    1.9969474548835294E+02    5.5060068761830230E+01    8.1608835603485486E-01
O    2.0890736397077595E+02   -4.4077748873283625E+01   -1.3637556127290125E+00
H    2.0986127543756237E+02   -4.4108258341062893E+01   -1.6494478814833340E+00
H    2.0887523226319297E+02   -4.4766261693690339E+01   -7.2155780493291288E-01
O    1.0048105642559433E+02    2.7399723653996818E+02   -5.2971723871840526E+00
H    1.0068690440224570E+02    2.7415231247260914E+02   -4.3343779636294482E+00
H    1.0126025197770454E+02    2.7432321284697440E+02   -5.8435535947507482E+00
O    2.2785666527963184E+02    1.0732630446907201E+02    4.0020845896785611E+00
H    2.2761529967688881E+02    1.0798785324071166E+02    4.7525383027270625E+00
H    2.2874169318207333E+02    1.0774954919056550E+02    3.6518577664036291E+00
O    1.2836869054679724E+02    8.0403676048624234E+01    9.4252378033036290E+00
H    1.2803459700002838E+02    8.1324405314795214E+01    9.6807669462345149E+00
H    1.2753824701798280E+02    8.0020743178968999E+01    9.0004751674578660E+00
O    1.5525040128937511E+02    1.1209696859915522E+02    6.8495768963426096E-01
H    1.5620225674170271E+02    1.1229416062146160E+02    4.6896173121003404E-01
H    1.5530085614633040E+02    1.1129603648200212E+02    1.2839269357773433E+00
O    1.2921310154722994E+02    1.3300681472325479E+02   -5.0648956447459055E+00
H    1.2865543072163356E+02    1.3219348553997767E+02   -4.8997768467211387E+00