 # Version information for this restart file 
 # current date 2020-01-19 14:05:22.896
 # current working dir /scratch/snx3000/gtocci/gtocci/MEMBRANES/AIMD_US_IONS_BN/aimd_us_iodide/us_29
 # Program compiled at                              Fri Nov 22 15:19:42 CET 2019
 # Program compiled on                                                  daint102
 # Program compiled for                                   CRAY_XC50-gfortran_gpu
 # Source code revision number                                       git:a698b45
 &GLOBAL
   PRINT_LEVEL  LOW
   PROJECT_NAME BNS
   RUN_TYPE  MD
   WALLTIME 86400
 &END GLOBAL
 &MOTION
   &MD
     ENSEMBLE  NVT
     STEPS  2000
     TIMESTEP     9.9999999999999989E-01
     STEP_START_VAL  43191
     TIME_START_VAL     4.3190999999987303E+04
     ECONS_START_VAL    -8.4830122588315644E+03
     TEMPERATURE     3.0000000000000000E+02
     TEMP_KIND  T
     &BAROSTAT
       PRESSURE     1.0000000000000000E+00
       TIMECON     9.9999999999999986E+01
       VIRIAL  Z
     &END BAROSTAT
     &THERMOSTAT
       TYPE  NOSE
       REGION  GLOBAL
       &NOSE
         LENGTH  4
         TIMECON     9.9999999999999986E+01
         MTS  2
         &COORD
               3.2274753178522081E-01    9.6965534961938769E+00    2.1497414281867869E-01   -1.5139484924876649E+01
         &END COORD
         &VELOCITY
              -2.9907243798368037E-07   -7.3400557693157519E-05    2.7614416635436966E-04   -9.9040796891497696E-05
         &END VELOCITY
         &MASS
               7.0145132684705392E+07    1.6237299232570693E+04    1.6237299232570693E+04    1.6237299232570693E+04
         &END MASS
         &FORCE
              -9.4416988635000349E-10   -5.8123614374047375E-08   -5.3122371980438525E-08    1.7745586761444708E-08
         &END FORCE
       &END NOSE
     &END THERMOSTAT
     &AVERAGES  T
       &RESTART_AVERAGES
         ITIMES_START  1
         AVECPU     2.4280325090687604E+01
         AVEHUGONIOT     0.0000000000000000E+00
         AVETEMP_BARO     0.0000000000000000E+00
         AVEPOT    -8.4858079509242361E+03
         AVEKIN     2.0517046932623932E+00
         AVETEMP     2.9994274403506392E+02
         AVEKIN_QM     0.0000000000000000E+00
         AVETEMP_QM     0.0000000000000000E+00
         AVEVOL     2.2086622704881255E+05
         AVECELL_A     4.9287836997924941E+01
         AVECELL_B     4.7426456757032106E+01
         AVECELL_C     9.4486306644279694E+01
         AVEALPHA     9.0000000000000000E+01
         AVEBETA     9.0000000000000000E+01
         AVEGAMMA     9.0000000000000000E+01
         AVE_ECONS     5.9800053924613763E+01
         AVE_PRESS     0.0000000000000000E+00
         AVE_PXX     0.0000000000000000E+00
       &END RESTART_AVERAGES
     &END AVERAGES
     &PRINT
       &TEMP_KIND  SILENT
       &END TEMP_KIND
     &END PRINT
   &END MD
   &FREE_ENERGY
     &METADYN
       MIN_DISP    -1.0000000000000000E+00
       OLD_HILL_NUMBER  0
       OLD_HILL_STEP  0
       DO_HILLS  F
       STEP_START_VAL  43191
       NHILLS_START_VAL  0
       &METAVAR
         SCALE     1.0000000000000000E+00
         COLVAR  1
       &END METAVAR
       &PRINT
         &COLVAR  SILENT
           COMMON_ITERATION_LEVELS  3
           &EACH
             MD  1
           &END EACH
         &END COLVAR
       &END PRINT
     &END METADYN
   &END FREE_ENERGY
   &CONSTRAINT
     &COLLECTIVE
       COLVAR  1
       INTERMOLECULAR  T
       &RESTRAINT
         K     4.4625385281452931E-04
       &END RESTRAINT
     &END COLLECTIVE
     &COLVAR_RESTART
           2.7623362670794048E+01
     &END COLVAR_RESTART
   &END CONSTRAINT
   &PRINT
     &TRAJECTORY  SILENT
       &EACH
         MD  1
       &END EACH
     &END TRAJECTORY
     &VELOCITIES  SILENT
       &EACH
         MD  1
       &END EACH
     &END VELOCITIES
     &FORCES  SILENT
       UNIT eV*angstrom^-1
       &EACH
         MD  1
       &END EACH
     &END FORCES
     &RESTART  SILENT
       &EACH
         MD  1
       &END EACH
     &END RESTART
     &RESTART_HISTORY  SILENT
       &EACH
         MD  100
       &END EACH
     &END RESTART_HISTORY
   &END PRINT
 &END MOTION
 &FORCE_EVAL
   METHOD  QS
   &DFT
     BASIS_SET_FILE_NAME /users/gtocci/scratch_daint_3000/data_cp2k//BASIS_MOLOPT
     POTENTIAL_FILE_NAME /users/gtocci/scratch_daint_3000/data_cp2k//GTH_POTENTIALS
     WFN_RESTART_FILE_NAME ./BNS-RESTART.wfn
     CHARGE  -1
     &SCF
       MAX_SCF  10
       EPS_SCF     9.9999999999999995E-07
       SCF_GUESS  RESTART
       &OT  T
         MINIMIZER  DIIS
         PRECONDITIONER  FULL_KINETIC
       &END OT
       &OUTER_SCF  T
         EPS_SCF     9.9999999999999995E-07
         MAX_SCF  30
       &END OUTER_SCF
       &PRINT
         &RESTART  SILENT
           ADD_LAST  NUMERIC
           &EACH
             QS_SCF  50
           &END EACH
         &END RESTART
       &END PRINT
     &END SCF
     &QS
       MAP_CONSISTENT  T
       EXTRAPOLATION  ASPC
       EXTRAPOLATION_ORDER  4
     &END QS
     &MGRID
       NGRIDS  5
       CUTOFF     4.6000000000000000E+02
     &END MGRID
     &XC
       DENSITY_CUTOFF     1.0000000000000000E-10
       GRADIENT_CUTOFF     1.0000000000000000E-10
       TAU_CUTOFF     1.0000000000000000E-10
       &XC_GRID
         XC_DERIV  SPLINE2_SMOOTH
       &END XC_GRID
       &XC_FUNCTIONAL  NO_SHORTCUT
         &LIBXC  T
           FUNCTIONAL XC_GGA_X_OPTB88_VDW
         &END LIBXC
         &VWN  T
         &END VWN
       &END XC_FUNCTIONAL
       &VDW_POTENTIAL
         POTENTIAL_TYPE  NON_LOCAL
         &NON_LOCAL
           TYPE  DRSLL
           VERBOSE_OUTPUT  T
           KERNEL_FILE_NAME /users/gtocci/scratch_daint_3000/data_cp2k//vdW_kernel_table.dat
           CUTOFF     3.6000000000000000E+02
         &END NON_LOCAL
       &END VDW_POTENTIAL
     &END XC
     &REAL_TIME_PROPAGATION
       INITIAL_WFN  SCF_WFN
     &END REAL_TIME_PROPAGATION
     &PRINT
       &MULLIKEN  SILENT
         FILENAME =BNS.mulliken
       &END MULLIKEN
     &END PRINT
   &END DFT
   &SUBSYS
     &CELL
       A     2.6082000000000019E+01    0.0000000000000000E+00    0.0000000000000000E+00
       B     0.0000000000000000E+00    2.5097000000000001E+01    0.0000000000000000E+00
       C     0.0000000000000000E+00    0.0000000000000000E+00    5.0000000000000028E+01
       MULTIPLE_UNIT_CELL  1 1 1
     &END CELL
     &COORD
B   -1.3962259010706601E+01    9.5733282901128742E+00   -2.9510413696145626E+01
B   -1.1854840483181391E+01    1.0852350908520723E+01   -2.9557258221224519E+01
B   -1.3977892986104665E+01    1.2142822316743738E+01   -2.9712846020300816E+01
B   -1.1837320623828223E+01    1.3398039648777004E+01   -2.9673974712245943E+01
B   -1.4082385992586902E+01    1.4632964778407064E+01   -2.9811762521241210E+01
B   -1.1834716323114879E+01    1.5871632998321914E+01   -2.9923331373247319E+01
B   -1.4106626340585612E+01    1.7066347244398695E+01   -3.0001316062762534E+01
B   -1.1847353442677340E+01    1.8340273162680955E+01   -3.0033876947956564E+01
B   -1.4047036221253027E+01    1.9605789960440330E+01   -2.9969417250052576E+01
B   -1.1847491056279356E+01    2.0908895241973379E+01   -3.0035931050066299E+01
B   -9.6059559561819032E+00    9.6799738148343391E+00   -2.9712423453090576E+01
B   -7.4948544533097143E+00    1.0906793282966976E+01   -2.9748203772354469E+01
B   -9.6652778968391555E+00    1.2099616167398692E+01   -2.9611669692727556E+01
B   -7.4968768883756107E+00    1.3404499284144741E+01   -2.9710788853564196E+01
B   -9.6505220715471953E+00    1.4694586748266952E+01   -2.9810714184604485E+01
B   -7.4763915692471024E+00    1.5902102309336751E+01   -2.9731382121876475E+01
B   -9.6942704481648594E+00    1.7107867576678814E+01   -2.9965256719320113E+01
B   -7.4752302316370303E+00    1.8396661056188499E+01   -2.9828644410000514E+01
B   -9.6916940741324478E+00    1.9607049449638463E+01   -3.0002492847312929E+01
B   -7.4890528284228681E+00    2.0841700606035072E+01   -2.9826468662207990E+01
B   -5.2781848809448118E+00    9.6330046510677185E+00   -2.9988602159010249E+01
B   -3.1040500202828230E+00    1.0858698169270035E+01   -2.9950502691793194E+01
B   -5.3602903804229607E+00    1.2127146517283704E+01   -2.9575425609414292E+01
B   -3.1066120883039550E+00    1.3327823210809562E+01   -2.9583903999461757E+01
B   -5.3673308418350452E+00    1.4581873433133422E+01   -2.9571297245192955E+01
B   -3.1603656109498628E+00    1.5846034199684485E+01   -2.9481848753130201E+01
B   -5.3607812260802463E+00    1.7113790965418683E+01   -2.9552738548394437E+01
B   -3.1637939915399822E+00    1.8348596187104569E+01   -2.9524119046739614E+01
B   -5.3658348290299571E+00    1.9618433126294992E+01   -2.9569225541864252E+01
B   -3.1236040943349712E+00    2.0834210307949412E+01   -2.9814583300486671E+01
N   -1.2494985640991050E+01    9.5935618118785797E+00   -2.9490397119466646E+01
N   -1.0396269649572655E+01    1.0867882127440842E+01   -2.9581263187456592E+01
N   -1.2580361668724715E+01    1.2135586874462968E+01   -2.9631043250096752E+01
N   -1.0368111546277433E+01    1.3374842589682784E+01   -2.9681447367928751E+01
N   -1.2579010848596573E+01    1.4606907374662104E+01   -2.9828905451796356E+01
N   -1.0425030272326737E+01    1.5867560443791291E+01   -3.0014158552352235E+01
N   -1.2620742114368134E+01    1.7077325930339853E+01   -3.0041128247661785E+01
N   -1.0406767400065082E+01    1.8365336860338338E+01   -3.0040574904449645E+01
N   -1.2587706600046978E+01    1.9663893552612798E+01   -3.0100225936237109E+01
N   -1.0373544492808028E+01    2.0901073333955640E+01   -3.0028596241767108E+01
N   -8.1597702988661194E+00    9.6661418164570776E+00   -2.9879639871268822E+01
N   -6.0283008892554504E+00    1.0859804720708759E+01   -2.9656918074886796E+01
N   -8.2308553878872743E+00    1.2106393368291279E+01   -2.9673534983308461E+01
N   -6.0967509475568917E+00    1.3338752004867038E+01   -2.9552634866524205E+01
N   -8.2091190109632031E+00    1.4654997321694049E+01   -2.9762247369383459E+01
N   -6.0642666837463928E+00    1.5873720170005276E+01   -2.9648748387135459E+01
N   -8.2420256205412770E+00    1.7145099465079060E+01   -2.9882057478292793E+01
N   -6.0599634636292148E+00    1.8351799670561345E+01   -2.9647484884803028E+01
N   -8.1851138141454278E+00    1.9643823807969593E+01   -2.9862365925637224E+01
N   -6.0139240602519877E+00    2.0887263219902177E+01   -2.9834340634002103E+01
N   -3.8228145620463465E+00    9.6142419964396097E+00   -3.0122578692871755E+01
N   -1.6585382779724831E+00    1.0875414584327840E+01   -2.9993952753463610E+01
N   -3.8752174956671501E+00    1.2058969520809171E+01   -2.9786824692570420E+01
N   -1.6842625631888273E+00    1.3332952651214876E+01   -2.9571257409706661E+01
N   -3.8897344292428127E+00    1.4566438941722652E+01   -2.9546556386455542E+01
N   -1.7242255870167824E+00    1.5827378925641497E+01   -2.9456373758152257E+01
N   -3.9088728329091791E+00    1.7113558483755313E+01   -2.9501199450409651E+01
N   -1.6984944702191183E+00    1.8331707026288036E+01   -2.9417998336146233E+01
N   -3.8731440822175327E+00    1.9624335886362054E+01   -2.9619804354094867E+01
N   -1.7126059087908585E+00    2.0838609605154936E+01   -2.9772420339101700E+01
B   -1.4001171019656359E+01    2.2184449940638711E+01   -2.9990331784313579E+01
B   -1.1845581850769394E+01    2.3462446745843124E+01   -2.9977145032944403E+01
B   -1.4035244285334489E+01    2.4740478899300456E+01   -2.9955899167957664E+01
B   -1.1836670390761002E+01    2.5927001344389126E+01   -2.9963471060937252E+01
B   -1.4038186098683630E+01    2.7216892108409610E+01   -2.9670569245872425E+01
B   -1.1771857771205967E+01    2.8414807077354464E+01   -2.9673901750365598E+01
B   -1.4004810776885465E+01    2.9718550001469968E+01   -2.9577845286930685E+01
B   -1.1754243235709405E+01    3.0930455576088512E+01   -2.9650108039419663E+01
B   -1.3989659784040898E+01    3.2141861224073971E+01   -2.9604770461491213E+01
B   -1.1779991081010555E+01    3.3420894825474676E+01   -2.9554786828462859E+01
B   -9.6428916876975457E+00    2.2082439731819417E+01   -2.9942781417915345E+01
B   -7.4873350176821578E+00    2.3370072130558242E+01   -2.9865538605149723E+01
B   -9.6586940009035320E+00    2.4655858831297117E+01   -2.9915878096955037E+01
B   -7.4599589131164947E+00    2.5843620136773527E+01   -2.9770918976167824E+01
B   -9.6527889617849034E+00    2.7116585445267035E+01   -2.9945497687763421E+01
B   -7.4274491734213770E+00    2.8408108721370255E+01   -2.9762164104883102E+01
B   -9.5706286935390779E+00    2.9712087325613187E+01   -2.9710389495492944E+01
B   -7.4357765194855219E+00    3.0988253235475529E+01   -2.9689152669035813E+01
B   -9.5883273743146393E+00    3.2248560584690956E+01   -2.9661248533133044E+01
B   -7.4160847916407748E+00    3.3475565558753239E+01   -2.9874494121694820E+01
B   -5.3243971970444965E+00    2.2123130990177824E+01   -2.9910762824889986E+01
B   -3.1201462512524789E+00    2.3353849330801346E+01   -3.0053132194710830E+01
B   -5.2781233641770342E+00    2.4643225252837233E+01   -2.9859911286698544E+01
B   -3.1673248718988058E+00    2.5918781156414848E+01   -3.0034438289843102E+01
B   -5.2714275965315052E+00    2.7176046857669036E+01   -2.9774752458317717E+01
B   -3.1476259456735018E+00    2.8438129460460967E+01   -3.0003883996226460E+01
B   -5.2823901956772312E+00    2.9684603899559342E+01   -2.9664469177509190E+01
B   -3.1530496062567575E+00    3.0943057578078928E+01   -2.9941986896816026E+01
B   -5.2609969339251563E+00    3.2260793462627561E+01   -2.9953691440443546E+01
B   -3.1314142437216144E+00    3.3488362357930185E+01   -3.0163095231542037E+01
N   -1.2551654395432795E+01    2.2201265853823699E+01   -3.0045359918747970E+01
N   -1.0368413618447940E+01    2.3402723893518605E+01   -2.9853445905328307E+01
N   -1.2564153680870092E+01    2.4706825519334998E+01   -3.0026594836637965E+01
N   -1.0402259436801193E+01    2.5889291538102690E+01   -2.9909684465649956E+01
N   -1.2572324553008952E+01    2.7165408590953366E+01   -2.9824652573884538E+01
N   -1.0326154921782912E+01    2.8400016643302070E+01   -2.9691656308395903E+01
N   -1.2539715505857835E+01    2.9647848515285339E+01   -2.9532814312343614E+01
N   -1.0311427593716203E+01    3.0944582893150489E+01   -2.9695227830470319E+01
N   -1.2491647327601276E+01    3.2173576096818792E+01   -2.9596157636693874E+01
N   -1.0356015857412979E+01    3.3476126150541340E+01   -2.9702776262568477E+01
N   -8.1718713291598206E+00    2.2160903327347292E+01   -3.0079732181179704E+01
N   -6.0229720307190737E+00    2.3409168408065121E+01   -2.9874780795747856E+01
N   -8.2404096077613485E+00    2.4662976814782418E+01   -2.9794752554144143E+01
N   -6.0183452506936037E+00    2.5900848936552485E+01   -2.9801679270698756E+01
N   -8.1989217195713682E+00    2.7133736169334959E+01   -2.9862100170496568E+01
N   -6.0199143156170702E+00    2.8383611432355440E+01   -2.9715785859885514E+01
N   -8.1264743376240531E+00    2.9695983828388215E+01   -2.9657502213050918E+01
N   -5.9812255806960071E+00    3.0959213449854005E+01   -2.9737198805216650E+01
N   -8.1976833970880012E+00    3.2271313971767356E+01   -2.9716896098536274E+01
N   -6.0220212787614242E+00    3.3516119632200237E+01   -2.9972866498562791E+01
N   -3.8201459395273920E+00    2.2109452794396891E+01   -2.9906210282934921E+01
N   -1.6631091286203394E+00    2.3351766776007029E+01   -3.0115209187550640E+01
N   -3.8355275064142407E+00    2.4574238276340420E+01   -2.9986177003770425E+01
N   -1.7447463464038278E+00    2.5854381359213537E+01   -3.0326657900270131E+01
N   -3.8463823655668334E+00    2.7198251265498111E+01   -2.9923659964832421E+01
N   -1.7123252374073279E+00    2.8443702509151571E+01   -3.0102210963332624E+01
N   -3.8768847100115988E+00    2.9694213232594301E+01   -2.9867582541545787E+01
N   -1.7344265713237954E+00    3.0973374009882402E+01   -2.9946837114487554E+01
N   -3.8647688208014523E+00    3.2207439831959967E+01   -3.0137299092986716E+01
N   -1.6777120854981202E+00    3.3425476317587027E+01   -3.0205130424649511E+01
B   -9.5072720386001830E-01    9.5940095534037333E+00   -3.0071936968460879E+01
B    1.2305189331001822E+00    1.0825444387431364E+01   -2.9600660244270557E+01
B   -9.9292476086881298E-01    1.2077417941408331E+01   -2.9638278445287444E+01
B    1.1839572635220743E+00    1.3321171648071035E+01   -2.9373641311888516E+01
B   -9.8525479146267592E-01    1.4593067708615173E+01   -2.9410597486645546E+01
B    1.2132104234742966E+00    1.5869036703379322E+01   -2.9193592347584655E+01
B   -9.6966866566424759E-01    1.7068761363492403E+01   -2.9308207862971294E+01
B    1.2082060893475854E+00    1.8403523311131906E+01   -2.9310753502149677E+01
B   -9.8070907691728060E-01    1.9603595007597050E+01   -2.9494652414070622E+01
B    1.1733949253241569E+00    2.0892664415599771E+01   -2.9509769078596957E+01
B    3.3549823711381688E+00    9.6085900016918728E+00   -2.9608370685476881E+01
B    5.5082281182432604E+00    1.0827005058731853E+01   -2.9551344662581560E+01
B    3.3519852035198521E+00    1.2151116834998739E+01   -2.9468220136382165E+01
B    5.5267504435900712E+00    1.3383236714895649E+01   -2.9538024724907412E+01
B    3.3379884981258305E+00    1.4677742682775660E+01   -2.9320983973367198E+01
B    5.5657120265977422E+00    1.5905505298487341E+01   -2.9301687642496397E+01
B    3.3791777095686757E+00    1.7209771761911160E+01   -2.9181192207363498E+01
B    5.5602244594991976E+00    1.8424811529058420E+01   -2.9359359755107498E+01
B    3.3524269053102573E+00    1.9622744055169601E+01   -2.9358132488118805E+01
B    5.5453671183359585E+00    2.0964892753669620E+01   -2.9529887276948163E+01
B    7.6817916764888432E+00    9.5891273546572986E+00   -2.9572819407642836E+01
B    9.9445297320260089E+00    1.0839981291494308E+01   -2.9580782450801330E+01
B    7.7346471140337485E+00    1.2066287202925205E+01   -2.9706189087958158E+01
B    9.8757741426198340E+00    1.3354595903142755E+01   -2.9745038634426336E+01
B    7.6758436592157082E+00    1.4605852599857190E+01   -2.9667248931713782E+01
B    9.8424367621596112E+00    1.5853451328161057E+01   -2.9807169949639860E+01
B    7.6764021615885678E+00    1.7100866551429188E+01   -2.9627249860909153E+01
B    9.8241138235596903E+00    1.8387881756753060E+01   -2.9790748839231050E+01
B    7.7001805367377223E+00    1.9611464637524975E+01   -2.9602221909909865E+01
B    9.8867696620918313E+00    2.0934453038608375E+01   -2.9643523249249380E+01
N    5.0739363107123692E-01    9.5958923990381635E+00   -2.9936288730249590E+01
N    2.6441573984747024E+00    1.0816932784281903E+01   -2.9586226305670227E+01
N    4.3745548035392723E-01    1.2096217262393949E+01   -2.9568954707985981E+01
N    2.6565805067567942E+00    1.3404894631807547E+01   -2.9371772525922296E+01
N    4.5518793293974597E-01    1.4578600713194586E+01   -2.9137030165663809E+01
N    2.6711654060860299E+00    1.5958364813131571E+01   -2.9073413002927339E+01
N    4.5362420664561420E-01    1.7109475054263392E+01   -2.9378010918335971E+01
N    2.6170894439672514E+00    1.8419629586858349E+01   -2.9128782716288150E+01
N    4.6719829636040733E-01    1.9629430258319559E+01   -2.9356473794823042E+01
N    2.6072299104201826E+00    2.0865017674327259E+01   -2.9526437237818222E+01
N    4.8360927426889253E+00    9.6057998542518543E+00   -2.9450703213427289E+01
N    6.9834059041416356E+00    1.0815526296822137E+01   -2.9682841409739563E+01
N    4.7679501868967886E+00    1.2109993080027252E+01   -2.9509991067962417E+01
N    6.9635903900568357E+00    1.3348096648149657E+01   -2.9682843773316062E+01
N    4.7753485709977523E+00    1.4682880431419868E+01   -2.9411737094665657E+01
N    6.9415557462658013E+00    1.5885480400245234E+01   -2.9523800974995378E+01
N    4.8644712955485430E+00    1.7168890683366953E+01   -2.9213237783611518E+01
N    6.9810953399630087E+00    1.8372854677542811E+01   -2.9562860800521204E+01
N    4.8224551656439631E+00    1.9652210167280234E+01   -2.9402180388649324E+01
N    7.0024736972923032E+00    2.0925335196309625E+01   -2.9538532480160626E+01
N    9.1511816643484529E+00    9.5951967257039854E+00   -2.9459928804276590E+01
N    1.1367128034637426E+01    1.0846043603177788E+01   -2.9590324408788589E+01
N    9.1468893629623302E+00    1.2055292397485296E+01   -2.9661120094462774E+01
N    1.1309315121993638E+01    1.3337671912393015E+01   -2.9872456245866509E+01
N    9.1264211520633953E+00    1.4604175249123241E+01   -2.9707979018740215E+01
N    1.1268131978754672E+01    1.5826036393364156E+01   -2.9916636319896842E+01
N    9.0798734163943227E+00    1.7111433746275878E+01   -2.9809860416109860E+01
N    1.1283053741068393E+01    1.8335092208795956E+01   -2.9964051679395990E+01
N    9.1742444308380868E+00    1.9611515251418528E+01   -2.9542597528607661E+01
N    1.1279553840489804E+01    2.0910397634112236E+01   -2.9982188740438019E+01
B   -9.4842402759843614E-01    2.2115174704584220E+01   -2.9835544653725343E+01
B    1.1888099727715955E+00    2.3394170532220794E+01   -2.9941401705138340E+01
B   -9.7482454918896644E-01    2.4598113302547663E+01   -3.0241099751945406E+01
B    1.1465751703366029E+00    2.5908613989017748E+01   -3.0256688067636471E+01
B   -9.6183058288973100E-01    2.7174064443074897E+01   -3.0360502068797004E+01
B    1.1808288023560076E+00    2.8484353389709369E+01   -3.0296239061620316E+01
B   -1.0384566091494625E+00    2.9720696705307734E+01   -3.0024653754139081E+01
B    1.1999291490125141E+00    3.0928259723240391E+01   -2.9973968248509742E+01
B   -9.5403960476868499E-01    3.2162258419293089E+01   -3.0080163563803644E+01
B    1.1975424202060279E+00    3.3437160244874896E+01   -2.9960982783156162E+01
B    3.3125820882676260E+00    2.2129890338750265E+01   -2.9695024204439449E+01
B    5.5121772003778320E+00    2.3424636105802129E+01   -2.9655308821892358E+01
B    3.3872134144444499E+00    2.4699009504380726E+01   -2.9918757953925919E+01
B    5.5449566350903821E+00    2.5974095630571345E+01   -2.9895780532722938E+01
B    3.3980889066666058E+00    2.7183029229777528E+01   -3.0141363391641097E+01
B    5.5358439493374370E+00    2.8471966795896499E+01   -2.9781101448963568E+01
B    3.3482180695432096E+00    2.9679015000213429E+01   -3.0042507118168455E+01
B    5.4878527794935170E+00    3.0982056393222337E+01   -2.9729394598963847E+01
B    3.3564077393265821E+00    3.2191953309610966E+01   -2.9886189941000243E+01
B    5.5746369567746967E+00    3.3445294830873081E+01   -2.9627009162193939E+01
B    7.7098284752434036E+00    2.2186979429689188E+01   -2.9519969843537673E+01
B    9.9038353689743950E+00    2.3514475084598590E+01   -2.9619194245937976E+01
B    7.7213740861777485E+00    2.4698134778019789E+01   -2.9605214724129940E+01
B    9.8343264505604200E+00    2.6013923899852866E+01   -2.9626135844688317E+01
B    7.7294846702904865E+00    2.7235997915038787E+01   -2.9698476772848725E+01
B    9.9115472524435155E+00    2.8564930101102931E+01   -2.9592254095358367E+01
B    7.7089563794487139E+00    2.9706930531783296E+01   -2.9482881728216650E+01
B    9.9503308700970923E+00    3.0942817360005968E+01   -2.9659471186599035E+01
B    7.7674757226677684E+00    3.2175896186354770E+01   -2.9539070718385442E+01
B    9.9028392797188545E+00    3.3465850744327398E+01   -2.9561185260994087E+01
N    4.9581906659719505E-01    2.2150465081799577E+01   -2.9815565794809842E+01
N    2.6501166841613637E+00    2.3371661767996940E+01   -2.9911463658858704E+01
N    4.7711754059495703E-01    2.4644616708246087E+01   -3.0116339045767916E+01
N    2.6052795582307127E+00    2.5925667810971458E+01   -3.0106399809634276E+01
N    4.7797786091567651E-01    2.7185473874606927E+01   -3.0509646714830080E+01
N    2.5998993425608123E+00    2.8476160872652475E+01   -3.0235888666100884E+01
N    4.2500954551730052E-01    2.9673528521100334E+01   -3.0023556232541129E+01
N    2.6678654814556761E+00    3.0966280283774829E+01   -2.9854084899446264E+01
N    4.9435832107169742E-01    3.2196025102966054E+01   -3.0038244977761480E+01
N    2.6459507585704700E+00    3.3464553250321615E+01   -2.9884994589093534E+01
N    4.7889678300574419E+00    2.2179466535878912E+01   -2.9643477395767281E+01
N    6.9658283354538995E+00    2.3398231945834045E+01   -2.9639990587877325E+01
N    4.8307146946117046E+00    2.4694794380710714E+01   -2.9824296761169123E+01
N    6.9717291269386141E+00    2.5974859789822844E+01   -2.9775896437127649E+01
N    4.8139246345179227E+00    2.7212608888117853E+01   -3.0051714888955441E+01
N    6.9946781190347567E+00    2.8463963435070482E+01   -2.9685464927810429E+01
N    4.8223609055324976E+00    2.9730485907420466E+01   -2.9850058078543157E+01
N    6.9795692242834289E+00    3.0943333267968203E+01   -2.9484323708674776E+01
N    4.8319742080404655E+00    3.2215549339939038E+01   -2.9864381022515524E+01
N    7.0138187891224142E+00    3.3423996119128724E+01   -2.9579975566504764E+01
N    9.2043176173325492E+00    2.2206375470412908E+01   -2.9436681553924647E+01
N    1.1359097642967622E+01    2.3487931746913141E+01   -2.9757215564311188E+01
N    9.1343820796402966E+00    2.4752069717507446E+01   -2.9524065506869075E+01
N    1.1280402904327390E+01    2.5949881755299923E+01   -2.9731930096320976E+01
N    9.1279170425757812E+00    2.7229424669253593E+01   -2.9576949588840144E+01
N    1.1332120805651872E+01    2.8514787009853656E+01   -2.9596602013060650E+01
N    9.1847911736858290E+00    2.9759148489839703E+01   -2.9540311943406262E+01
N    1.1354434034277157E+01    3.0930527524730238E+01   -2.9836324848380034E+01
N    9.2010605682498738E+00    3.2193860512936681E+01   -2.9635202529575217E+01
N    1.1343646364497195E+01    3.3444201141714004E+01   -2.9590442650252459E+01
O   -6.0580390073242114E+00    4.6868982425501883E+01   -2.6585357195142208E+01
H   -7.0803552945865578E+00    4.6846797384285914E+01   -2.6508782027950293E+01
H   -5.8152980885752568E+00    4.7817674083291223E+01   -2.6622671698141634E+01
O   -1.5306293339925694E+00    9.7051790519397628E+01   -2.0330337481175654E+01
H   -2.2518010126014585E+00    9.7635177798170147E+01   -2.0685314583455337E+01
H   -1.4927595291392917E+00    9.7271520819310183E+01   -1.9314781810234283E+01
O   -4.1858870960353878E-01    6.4001920351150630E+01   -2.1300454974676892E+01
H    2.8443497274262480E-01    6.3485310601320329E+01   -2.1752281271886631E+01
H   -4.7821233474143660E-02    6.4271081260506847E+01   -2.0439659284814198E+01
O    6.1156082405445865E+01    3.6135031347029482E+01   -1.2986583180604313E+01
H    6.1438950348691321E+01    3.6763733911562717E+01   -1.2264332370021959E+01
H    6.0927436039426254E+01    3.5320959885554473E+01   -1.2543331851364169E+01
O    3.4622781803397984E+01    1.1736856726654565E+01   -1.9219991259984770E+01
H    3.5208317988696159E+01    1.1374242045061353E+01   -1.8485685471691102E+01
H    3.4265128696889029E+01    1.2616064354947145E+01   -1.8850395773935205E+01
O   -9.7837581155163278E+00    9.1862387059117268E+01   -9.8675920532115686E+00
H   -1.0148737433884760E+01    9.2608165996324004E+01   -1.0511694517568570E+01
H   -8.9170145534395537E+00    9.2092110570698651E+01   -9.5563666785364845E+00
O   -7.0442260247082515E+00    6.3663571561623520E+01   -2.3501033121645690E+01
H   -7.9330141015783342E+00    6.3996861133141174E+01   -2.3781410084413416E+01
H   -6.7080129443095897E+00    6.2945603509453399E+01   -2.4038644636685831E+01
O   -5.1351666223816615E+01    2.0176445250666251E+01   -1.4718950329873010E+01
H   -5.1130644606177015E+01    2.1110445318808129E+01   -1.4698109869602767E+01
H   -5.0470000223703224E+01    1.9646432414015877E+01   -1.4857508536668002E+01
O   -5.9470497654143145E+01    7.8363188660317775E+01   -2.6523750344373045E+01
H   -5.9885406355084960E+01    7.9265697829147214E+01   -2.6535704084248014E+01
H   -6.0060504812880822E+01    7.7774474396272424E+01   -2.7064607945668211E+01
O   -6.0922311816054417E+01   -3.1207578497280803E+01   -1.7880012937022684E+01
H   -6.1639737884015446E+01   -3.1723350486495871E+01   -1.8341002007104077E+01
H   -6.1355073776449238E+01   -3.0405654139387863E+01   -1.7567155954631541E+01
O   -6.7774769255998670E+00    1.7620902937906795E+01   -1.6474062234266263E+01
H   -6.6780708388475833E+00    1.8428664136471777E+01   -1.5914330292620317E+01
H   -7.5519322534455640E+00    1.7848989367428270E+01   -1.6985207538417090E+01
O   -3.2916757646376176E+01   -8.3742994050611781E+00   -2.1038673410820145E+01
H   -3.3095521556724606E+01   -7.4597465134974756E+00   -2.0700027018513438E+01
H   -3.3651772801310777E+01   -8.6006511728739685E+00   -2.1634069589293684E+01
O    1.3378782010713367E+01    7.1860426156153068E+01   -1.5999370783170365E+01
H    1.3566756142195210E+01    7.2126341932331002E+01   -1.5064743251173578E+01
H    1.2442580941833643E+01    7.1540079879457778E+01   -1.5904561275774316E+01
O   -8.9082313274393190E+00    3.6690739519022557E+01   -1.9773353179293633E+01
H   -8.0069995788570765E+00    3.6765411810296840E+01   -2.0200108810331258E+01
H   -8.6886950428229817E+00    3.6388919557109773E+01   -1.8864566358748089E+01
O    3.4271839350885884E+01    9.0657507839267080E+00   -2.0679400944606297E+01
H    3.5264009643747343E+01    8.8954213241269642E+00   -2.0586975812301453E+01
H    3.3936434695742761E+01    8.8202145237401819E+00   -1.9755216146226374E+01
O    4.2772990442733359E+01    5.9439264519255417E+01   -2.6702437636703557E+01
H    4.2996719307201232E+01    5.9312968887281578E+01   -2.5744646988242064E+01
H    4.3702745124344318E+01    5.9512142833522809E+01   -2.7108091756947641E+01
O   -1.6813840124311280E+01    3.9163103305001890E+01   -2.2089996042586176E+01
H   -1.5992221727694988E+01    3.9430185499209692E+01   -2.2580193963851684E+01
H   -1.6570815979305298E+01    3.9363563685078482E+01   -2.1150271155340793E+01
O    1.4214217241063468E+01    2.6732325006800338E+01   -2.2961700764259966E+01
H    1.4485196055485476E+01    2.5871803085084032E+01   -2.3443250120909909E+01
H    1.4817101082216396E+01    2.7455022734567446E+01   -2.3346051894713320E+01
O   -3.2525943052495776E+01   -3.5237821602596298E+01   -1.6355423581727695E+01