 # Version information for this restart file 
 # current date 2019-01-28 05:13:09.529
 # current working dir /scratch/snx3000/gtocci/gtocci/MEMBRANES/AIMD_US_IONS_GRA/potassium/aimd_us_pot/us_6
 # Program compiled at                             Thu Oct 11 21:49:41 CEST 2018
 # Program compiled on                                                  daint104
 # Program compiled for                                   CRAY_XC50-gfortran_gpu
 # Source code revision number                                     git:be74c20a5
 &GLOBAL
   PRINT_LEVEL  LOW
   PROJECT_NAME GRAS
   RUN_TYPE  MD
   WALLTIME 10200
 &END GLOBAL
 &MOTION
   &MD
     ENSEMBLE  NVT
     STEPS  100000
     TIMESTEP     9.9999999999999989E-01
     STEP_START_VAL  41416
     TIME_START_VAL     4.1415999999989683E+04
     ECONS_START_VAL    -8.3207436999104866E+03
     TEMPERATURE     3.0000000000000000E+02
     TEMP_KIND  T
     &BAROSTAT
       PRESSURE     1.0000000000000000E+00
       TIMECON     9.9999999999999986E+01
       VIRIAL  Z
     &END BAROSTAT
     &THERMOSTAT
       TYPE  NOSE
       REGION  GLOBAL
       &NOSE
         LENGTH  4
         TIMECON     9.9999999999999986E+01
         MTS  2
         &COORD
               1.4566263625923059E-01    1.4461324654167594E+01    2.1142704477446166E+01   -2.0798910005148400E+01
         &END COORD
         &VELOCITY
               4.0177208127658459E-06   -1.4078188819327994E-04    6.7852954404115580E-05   -7.5108979541802000E-05
         &END VELOCITY
         &MASS
               7.0145132684705392E+07    1.6237299232570693E+04    1.6237299232570693E+04    1.6237299232570693E+04
         &END MASS
         &FORCE
              -1.2245991523497962E-09    1.1223774036608525E-08   -3.8690473806839897E-08   -5.3905990428738084E-08
         &END FORCE
       &END NOSE
     &END THERMOSTAT
     &AVERAGES  T
       &RESTART_AVERAGES
         ITIMES_START  1
         AVECPU     4.6214626774833718E+01
         AVEHUGONIOT     0.0000000000000000E+00
         AVETEMP_BARO     0.0000000000000000E+00
         AVEPOT    -8.3232693497454748E+03
         AVEKIN     2.0551733169830606E+00
         AVETEMP     3.0044982895826894E+02
         AVEKIN_QM     0.0000000000000000E+00
         AVETEMP_QM     0.0000000000000000E+00
         AVEVOL     2.1331414786628043E+05
         AVECELL_A     4.8437460238125148E+01
         AVECELL_B     4.6608961231944789E+01
         AVECELL_C     9.4486306644279480E+01
         AVEALPHA     9.0000000000000057E+01
         AVEBETA     9.0000000000000057E+01
         AVEGAMMA     9.0000000000000057E+01
         AVE_ECONS    -2.0459271407698005E+00
         AVE_PRESS     0.0000000000000000E+00
         AVE_PXX     0.0000000000000000E+00
       &END RESTART_AVERAGES
     &END AVERAGES
     &PRINT
       &TEMP_KIND  SILENT
       &END TEMP_KIND
     &END PRINT
   &END MD
   &FREE_ENERGY
     &METADYN
       MIN_DISP    -1.0000000000000000E+00
       OLD_HILL_NUMBER  0
       OLD_HILL_STEP  0
       DO_HILLS  F
       STEP_START_VAL  41416
       NHILLS_START_VAL  0
       &METAVAR
         SCALE     1.0000000000000000E+00
         COLVAR  1
       &END METAVAR
       &PRINT
         &COLVAR  SILENT
           COMMON_ITERATION_LEVELS  3
           &EACH
             MD  1
           &END EACH
         &END COLVAR
       &END PRINT
     &END METADYN
   &END FREE_ENERGY
   &CONSTRAINT
     &COLLECTIVE
       COLVAR  1
       INTERMOLECULAR  T
       &RESTRAINT
         K     4.4625385281452931E-04
       &END RESTRAINT
     &END COLLECTIVE
     &COLVAR_RESTART
           5.6691783986569293E+00
     &END COLVAR_RESTART
   &END CONSTRAINT
   &PRINT
     &TRAJECTORY  SILENT
       &EACH
         MD  1
       &END EACH
     &END TRAJECTORY
     &VELOCITIES  SILENT
       &EACH
         MD  1
       &END EACH
     &END VELOCITIES
     &FORCES  SILENT
       UNIT eV*angstrom^-1
       &EACH
         MD  1
       &END EACH
     &END FORCES
     &RESTART  SILENT
       &EACH
         MD  1
       &END EACH
     &END RESTART
     &RESTART_HISTORY  SILENT
       &EACH
         MD  100
       &END EACH
     &END RESTART_HISTORY
   &END PRINT
 &END MOTION
 &FORCE_EVAL
   METHOD  QS
   &DFT
     BASIS_SET_FILE_NAME /users/gtocci/scratch_daint_3000/data_cp2k//BASIS_MOLOPT
     POTENTIAL_FILE_NAME /users/gtocci/scratch_daint_3000/data_cp2k//GTH_POTENTIALS
     WFN_RESTART_FILE_NAME ./GRAS-RESTART.wfn
     CHARGE  1
     &SCF
       MAX_SCF  10
       EPS_SCF     9.9999999999999995E-07
       SCF_GUESS  RESTART
       &OT  T
         MINIMIZER  DIIS
         PRECONDITIONER  FULL_KINETIC
       &END OT
       &OUTER_SCF  T
         EPS_SCF     9.9999999999999995E-07
         MAX_SCF  30
       &END OUTER_SCF
       &PRINT
         &RESTART  SILENT
           ADD_LAST  NUMERIC
           &EACH
             QS_SCF  50
           &END EACH
         &END RESTART
       &END PRINT
     &END SCF
     &QS
       MAP_CONSISTENT  T
       EXTRAPOLATION  ASPC
       EXTRAPOLATION_ORDER  4
     &END QS
     &MGRID
       NGRIDS  5
       CUTOFF     4.6000000000000000E+02
     &END MGRID
     &XC
       DENSITY_CUTOFF     1.0000000000000000E-10
       GRADIENT_CUTOFF     1.0000000000000000E-10
       TAU_CUTOFF     1.0000000000000000E-10
       &XC_GRID
         XC_DERIV  SPLINE2_SMOOTH
       &END XC_GRID
       &XC_FUNCTIONAL  NO_SHORTCUT
         &LIBXC  T
           FUNCTIONAL XC_GGA_X_OPTB88_VDW
         &END LIBXC
         &VWN  T
         &END VWN
       &END XC_FUNCTIONAL
       &VDW_POTENTIAL
         POTENTIAL_TYPE  NON_LOCAL
         &NON_LOCAL
           TYPE  DRSLL
           VERBOSE_OUTPUT  T
           KERNEL_FILE_NAME /users/gtocci/scratch_daint_3000/data_cp2k//vdW_kernel_table.dat
         &END NON_LOCAL
       &END VDW_POTENTIAL
     &END XC
     &REAL_TIME_PROPAGATION
       INITIAL_WFN  SCF_WFN
     &END REAL_TIME_PROPAGATION
     &PRINT
       &MULLIKEN  SILENT
         FILENAME =GRAS.mulliken
       &END MULLIKEN
     &END PRINT
   &END DFT
   &SUBSYS
     &CELL
       A     2.5632000000000001E+01    0.0000000000000000E+00    0.0000000000000000E+00
       B     0.0000000000000000E+00    2.4664400000000022E+01    0.0000000000000000E+00
       C     0.0000000000000000E+00    0.0000000000000000E+00    5.0000000000000028E+01
       MULTIPLE_UNIT_CELL  1 1 1
     &END CELL
     &COORD
C    5.2639452935485513E+00    8.2198242370813634E+00    6.0600943771692950E-01
C    6.6776771470308764E+00    8.2538408730610495E+00    6.1386383286698565E-01
C    7.3927494142181214E+00    9.4992265480575053E+00    6.2624488309012305E-01
C    8.8219037279387589E+00    9.5087047184456761E+00    5.4518038868336016E-01
C    5.2344651281476464E+00    1.0705765333665701E+01    5.4314300603243670E-01
C    6.6512067149901357E+00    1.0743506277828894E+01    5.6906124766059574E-01
C    7.3940431902538100E+00    1.1972303387456478E+01    5.3303445862836019E-01
C    8.7993051041938859E+00    1.1971057211143158E+01    3.9754513732948310E-01
C    5.2870672247266359E+00    1.3197171171180376E+01    5.2280286485535876E-01
C    6.6990140659114203E+00    1.3192747701162697E+01    5.6679156514638884E-01
C    7.4064151580644113E+00    1.4376676869985122E+01    4.3128619564132087E-01
C    8.8417483871318865E+00    1.4376551377723127E+01    3.4819425996245607E-01
C    5.3007581420440291E+00    1.5650929318164080E+01    5.8516491364855006E-01
C    6.7024040606027437E+00    1.5624777016738857E+01    5.3741513929264262E-01
C    7.4013422949150778E+00    1.6877231021069885E+01    5.5796782425191016E-01
C    8.8220937794757308E+00    1.6854321744356078E+01    3.6834106354677087E-01
C    5.2786601049420518E+00    1.8138380264867010E+01    7.0359051967147446E-01
C    6.6993893970241958E+00    1.8127371616309350E+01    6.8220497681936232E-01
C    7.3994396425819380E+00    6.9964770823028974E+00    5.4350468720362621E-01
C    8.8342046040141415E+00    6.9870393164111535E+00    4.3753963371237653E-01
C    9.5106655764424310E+00    8.2759563223652517E+00    4.0327536616417814E-01
C    1.0962218211793621E+01    8.2604771815803346E+00    3.1183249612307723E-01
C    1.1627059623327908E+01    9.5033653219557266E+00    3.5890652082148439E-01
C    1.3064080537923685E+01    9.4833337687609394E+00    4.3966522527968116E-01
C    9.5103651162676019E+00    1.0756425468196234E+01    4.8168425958196592E-01
C    1.0936625273656130E+01    1.0733055093791082E+01    4.1273467782335638E-01
C    1.1680638040487688E+01    1.1971122115842558E+01    5.2867109651689270E-01
C    1.3121003898537747E+01    1.1924938744756172E+01    6.7068715411400770E-01
C    9.5517463122217521E+00    1.3180801878288795E+01    3.6164667715470122E-01
C    1.0995229525907060E+01    1.3167115544904112E+01    4.2238570501541173E-01
C    1.1694006854162616E+01    1.4394827572416975E+01    5.6601702875154947E-01
C    1.3120158283190827E+01    1.4401391139529322E+01    7.5630549734732277E-01
C    9.5281061757724661E+00    1.5610958844874057E+01    3.4699007261076825E-01
C    1.0967549476993421E+01    1.5643945099325979E+01    4.9520122709287451E-01
C    1.1644148934719428E+01    1.6866910615907766E+01    5.0439056644049385E-01
C    1.3106846637398569E+01    1.6881326695355835E+01    5.3811994316782874E-01
C    9.5187094457141335E+00    1.8098992701248761E+01    3.3788966257573577E-01
C    1.0927962347851452E+01    1.8091158123319236E+01    3.7559871574959403E-01
C    1.1651124161469761E+01    7.0038405336357332E+00    2.5174949251464551E-01
C    1.3068691603873731E+01    7.0009637456071738E+00    2.2059653764006076E-01
C    1.3761534354329838E+01    8.2519228838994128E+00    3.3196298225898907E-01
C    1.5196846613850518E+01    8.2632189101330464E+00    3.6043146539015791E-01
C    1.5945971896452559E+01    9.4475253060928477E+00    4.7148674284191150E-01
C    1.7378417389001967E+01    9.5029505087156849E+00    4.5355846400052763E-01
C    1.3841194051101770E+01    1.0684886147610751E+01    6.3621607452064688E-01
C    1.5235577182565684E+01    1.0664052647754627E+01    6.7904086251777707E-01
C    1.5934371498612974E+01    1.1897056335118828E+01    8.5007148661351062E-01
C    1.7360742698017244E+01    1.1944383498300336E+01    7.7753244101158714E-01
C    1.3830753398817700E+01    1.3173725647419355E+01    8.3197722897671122E-01
C    1.5248117846342849E+01    1.3164966065479533E+01    9.5370227633233706E-01
C    1.5971178155547106E+01    1.4426418132207674E+01    9.9128181939556625E-01
C    1.7357520401504029E+01    1.4431049306960674E+01    9.9529628154101257E-01
C    1.3821037073994635E+01    1.5639569723346483E+01    7.0603996020443238E-01
C    1.5243393719677011E+01    1.5635239371100127E+01    8.0147460865485298E-01
C    1.5933980835252138E+01    1.6843275610737521E+01    6.2503947527082415E-01
C    1.7392279968624699E+01    1.6875034411599664E+01    7.7657614097110150E-01
C    1.3803075823031666E+01    1.8092649044028757E+01    3.0054915744555305E-01
C    1.5252672250701437E+01    1.8065938591125619E+01    4.2359124651862740E-01
C    1.5892604191643064E+01    7.0445581476558008E+00    2.9252800861685047E-01
C    1.7351021314991335E+01    7.0303700570870022E+00    3.8829051494426980E-01
C    5.2433263486960584E+00    2.0577964495965613E+01    6.8778701851379787E-01
C    6.6729505039140218E+00    2.0628551052612607E+01    7.2916713865816496E-01
C    7.4180078960497866E+00    2.1838955980150001E+01    7.3808376154391475E-01
C    8.8352475920531663E+00    2.1780975739094067E+01    5.7871828766824607E-01
C    5.2506910252323493E+00    2.3055942248515585E+01    7.1431492506331196E-01
C    6.6710501896911483E+00    2.3063682072455435E+01    7.3204800271033832E-01
C    7.3747280452660799E+00    2.4274797743854901E+01    6.0466516141561288E-01
C    8.8203300788392855E+00    2.4245100298938681E+01    4.5893051442543498E-01
C    5.2285585116412108E+00    2.5525824208570853E+01    5.5802112534624448E-01
C    6.6689040680199243E+00    2.5488924399376575E+01    5.4681181790940780E-01
C    7.3745819422631458E+00    2.6719244878520566E+01    4.1847986370780360E-01
C    8.8421683123315908E+00    2.6672080414061142E+01    3.1450978981006944E-01
C    5.2943979137781314E+00    2.7973280703060254E+01    5.5861464993917298E-01
C    6.6993018293739102E+00    2.7974853739059853E+01    5.1114258153839665E-01
C    7.4176293166071421E+00    2.9212178844704706E+01    4.3050028106872645E-01
C    8.8293326619806400E+00    2.9179425308409598E+01    2.9392580828502191E-01
C    5.2698002062849882E+00    3.0438360350912010E+01    6.5440201827615418E-01
C    6.7047594880973165E+00    3.0422011833813841E+01    5.1651774262557715E-01
C    7.3590808847067324E+00    1.9401977356440270E+01    6.4391194858517287E-01
C    8.7681064688614985E+00    1.9349714633282918E+01    5.3040314633458152E-01
C    9.5183714074039472E+00    2.0556777156115256E+01    4.6255806224466711E-01
C    1.0936738007799752E+01    2.0521166136392040E+01    3.7709608130914135E-01
C    1.1623599430382679E+01    2.1761839084669795E+01    3.6979150485808471E-01
C    1.3088829226644728E+01    2.1755776126462489E+01    3.1859821911109221E-01
C    9.5150239368338454E+00    2.3001664156350117E+01    4.8737915766929735E-01
C    1.0929838027859583E+01    2.3019739068518145E+01    4.8284270226458381E-01
C    1.1633914078701396E+01    2.4260844708548905E+01    3.4178601817910004E-01
C    1.3082616354090938E+01    2.4212831015966724E+01    2.5546984100395426E-01
C    9.5189796967845783E+00    2.5450947396157883E+01    2.6995537834454247E-01
C    1.0942089599049082E+01    2.5485546867564317E+01    2.1375030672889364E-01
C    1.1668942456229479E+01    2.6680891349922593E+01    1.0645871937455795E-01
C    1.3131059984826436E+01    2.6703251949553177E+01    1.3201119671719105E-01
C    9.5190081509893290E+00    2.7919656261682196E+01    2.4360376748573656E-01
C    1.0944405614048165E+01    2.7927134903359601E+01    1.0460250956224172E-01
C    1.1655309200783787E+01    2.9166365164365313E+01    4.6110616459977841E-02
C    1.3082322538390704E+01    2.9228603735417657E+01    8.5443882229539969E-02
C    9.5104099913089009E+00    3.0410894571642466E+01    2.9848785981343473E-01
C    1.0937088663116022E+01    3.0423900508781486E+01    1.5585404737983807E-01
C    1.1655587754573407E+01    1.9300317114173524E+01    2.9582799084756106E-01
C    1.3069884161593642E+01    1.9285133143729631E+01    2.8747739148396523E-01
C    1.3780181704417373E+01    2.0520962141417673E+01    2.8698240745443926E-01
C    1.5190753897914275E+01    2.0502355373625232E+01    3.9361322598139536E-01
C    1.5929298177771926E+01    2.1719149771803572E+01    3.7653901360871833E-01
C    1.7378378166317798E+01    2.1750785370127904E+01    4.8292629744311949E-01
C    1.3786315011135391E+01    2.2971223110367678E+01    3.3214537618368717E-01
C    1.5194739852261877E+01    2.2954754885532545E+01    4.0456898920160889E-01
C    1.5906286628240387E+01    2.4203808627697825E+01    4.1439458336577528E-01
C    1.7341558386739354E+01    2.4229879297275541E+01    4.0481128985435055E-01
C    1.3793224199781044E+01    2.5439799329436401E+01    1.5419728345956860E-01
C    1.5200807220888317E+01    2.5434245085312877E+01    2.2056397086656004E-01
C    1.5910458807763650E+01    2.6677470012671861E+01    2.9805764410735097E-01
C    1.7344684580429728E+01    2.6742274798861008E+01    3.8982323764245180E-01
C    1.3795202836180078E+01    2.7968191684169582E+01    1.2295849504792354E-01
C    1.5188447355373127E+01    2.7940653581915250E+01    2.1234615817293592E-01
C    1.5882448642526539E+01    2.9188965674164859E+01    2.0529099612038171E-01
C    1.7298249065811213E+01    2.9207961911203821E+01    4.3908916929779129E-01
C    1.3785739621475173E+01    3.0448564521950594E+01    1.6894243441557122E-01
C    1.5202289471220535E+01    3.0466289297551388E+01    1.3132248275466807E-01
C    1.5938690354551852E+01    1.9301722124708370E+01    5.0290859332839344E-01
C    1.7371168518258813E+01    1.9333693539431803E+01    5.9291513350345970E-01
C    1.8091603201689900E+01    8.2403391014204797E+00    3.8593552210054716E-01
C    1.9514903856531895E+01    8.2866369773404145E+00    4.2991991077641961E-01
C    2.0239146915551309E+01    9.5042289747864412E+00    4.8750291422434333E-01
C    2.1649360052775059E+01    9.4425256858451085E+00    5.4847042792383260E-01
C    1.8093172918432149E+01    1.0731512204538335E+01    6.0528826165348459E-01
C    1.9535990511843412E+01    1.0717335992748836E+01    6.0424477426730594E-01
C    2.0224538661223310E+01    1.1940628011291023E+01    7.3967681821791553E-01
C    2.1660254066045855E+01    1.1903475165690711E+01    7.2844877676645825E-01
C    1.8084974860788993E+01    1.3174358818277272E+01    8.7395882739996911E-01
C    1.9508879728869736E+01    1.3158084764802172E+01    8.6831424534988255E-01
C    2.0243782908668784E+01    1.4391959851659612E+01    8.3778492548896277E-01
C    2.1683928765342575E+01    1.4391480108633193E+01    8.2909868649113561E-01
C    1.8098719160219279E+01    1.5642597472879471E+01    9.4396239920741243E-01
C    1.9548053157323928E+01    1.5665898591996564E+01    8.8858224673661301E-01
C    2.0274075576131441E+01    1.6875776298475877E+01    7.0788699036299063E-01
C    2.1680832253367988E+01    1.6831177073131695E+01    7.0350902165895013E-01
C    1.8099295480167232E+01    1.8096903868528234E+01    7.5581391867463510E-01
C    1.9531088978160664E+01    1.8103303858256236E+01    7.2549939091214055E-01
C    2.0179238399646387E+01    7.0013728313920049E+00    5.3892442225346848E-01
C    2.1600455606305239E+01    7.0011643970827331E+00    5.6079897215612240E-01
C    2.2350994385595151E+01    8.2023949186528604E+00    5.1766255833875618E-01
C    2.3775876453991142E+01    8.2346705011743406E+00    5.7830801738099913E-01
C    2.4512593736665153E+01    9.4848354512024979E+00    6.2810857603897441E-01
C    2.5937428583677946E+01    9.4705720039067671E+00    6.8729189079453679E-01
C    2.2380081060726738E+01    1.0661791778351873E+01    6.3223168172535660E-01
C    2.3818981103179027E+01    1.0689552370757056E+01    5.7346772160876947E-01
C    2.4529949329875752E+01    1.1921062813358544E+01    5.9574375964455595E-01
C    2.5936630675333909E+01    1.1949206669845799E+01    5.3755148693749610E-01
C    2.2382423033298643E+01    1.3178694457122250E+01    7.5167768488715891E-01
C    2.3819696206569670E+01    1.3173943171739253E+01    7.3286800592315371E-01
C    2.4560847339343557E+01    1.4394608545707136E+01    7.8676919508292287E-01
C    2.5991690805253075E+01    1.4409303162048671E+01    6.4574686600519693E-01
C    2.2413397981171865E+01    1.5616692848850761E+01    8.0932956097765807E-01
C    2.3827348152324163E+01    1.5652406048398525E+01    8.1568480331380211E-01
C    2.4517946389954755E+01    1.6883810556372257E+01    8.1701760131477774E-01
C    2.5944331995131975E+01    1.6897753823428989E+01    7.7292847381784602E-01
C    2.2354368387658802E+01    1.8109294433495865E+01    7.4678217834505423E-01
C    2.3782801896445083E+01    1.8124620721621028E+01    7.0749533785922514E-01
C    2.4469542719244370E+01    6.9877958760967456E+00    6.8755925453820654E-01
C    2.5904759783290555E+01    6.9874135251726388E+00    7.0825882734684709E-01
C    2.6627070537634562E+01    8.2317031271968784E+00    6.8620661526670612E-01
C    2.8042416284289420E+01    8.2514895012351968E+00    7.0057911948550999E-01
C    2.8780950176815935E+01    9.4896246407224183E+00    6.3878310326227605E-01
C    3.0189416232425998E+01    9.4528719482627626E+00    6.0278864667815990E-01
C    2.6635110398329477E+01    1.0722349076373876E+01    6.2130519055178413E-01
C    2.8087037094244021E+01    1.0748321858611575E+01    5.7423480686722284E-01
C    2.8765288152989623E+01    1.1965804002934494E+01    5.3451251294682156E-01
C    3.0189138914609195E+01    1.1974139526979254E+01    5.3292977944235520E-01
C    2.6661633632538173E+01    1.3186142325670172E+01    4.9802668779216480E-01
C    2.8057151875735915E+01    1.3212521497413583E+01    5.4452407352590426E-01
C    2.8771433808996605E+01    1.4372340797580856E+01    5.6459640042026948E-01
C    3.0212821052122809E+01    1.4410022913450359E+01    5.8720916411516988E-01
C    2.6700548419839311E+01    1.5671253828031913E+01    6.8502255699108894E-01
C    2.8104444513927117E+01    1.5614964611848363E+01    6.3505163488695848E-01
C    2.8820300862735010E+01    1.6854836446062318E+01    7.3819565360053330E-01
C    3.0215668683893316E+01    1.6878706874518315E+01    7.3316335025528712E-01
C    2.6657455798811952E+01    1.8119368023994390E+01    7.2230332169020128E-01
C    2.8091354322602918E+01    1.8103236444417156E+01    7.3589036672407726E-01
C    2.8746316102227745E+01    6.9817134038092972E+00    5.5767463833294006E-01
C    3.0202524858328374E+01    7.0095916195678738E+00    5.6301600139466057E-01
C    1.8083237973957942E+01    2.0544696532716571E+01    5.2886784619025928E-01
C    1.9508582966684195E+01    2.0559723438747934E+01    6.3630023171118488E-01
C    2.0208625708569226E+01    2.1818719906800560E+01    5.8709857247737407E-01
C    2.1651784694891219E+01    2.1861377788889083E+01    5.9820551795474641E-01
C    1.8051457685869391E+01    2.3033054393486520E+01    4.4708660227754576E-01
C    1.9458043140167618E+01    2.3051434674068727E+01    4.8911567822136748E-01
C    2.0171246661344320E+01    2.4273919841698365E+01    4.8723740870575033E-01
C    2.1598421843991488E+01    2.4292398718631187E+01    5.9734188109002606E-01
C    1.8062135773146476E+01    2.5488769792585956E+01    3.4490610903623337E-01
C    1.9505002732331675E+01    2.5501595316633804E+01    4.8783426134540653E-01
C    2.0204844846575192E+01    2.6710359335347771E+01    5.0496612693985110E-01
C    2.1601837657469929E+01    2.6754788683175438E+01    5.4155705910685237E-01
C    1.8048425677372595E+01    2.7995384907061652E+01    4.5877781925475114E-01
C    1.9441508859282248E+01    2.7967216867130162E+01    4.6216845383537813E-01
C    2.0182638548210157E+01    2.9230843017514033E+01    4.8701141104120949E-01
C    2.1590456819463920E+01    2.9221681841213936E+01    5.3532966388099645E-01
C    1.8025093555323046E+01    3.0423334738183133E+01    4.9270752660206490E-01
C    1.9449021521799949E+01    3.0439828051863344E+01    5.9230763312859547E-01
C    2.0226391945733695E+01    1.9316317602325960E+01    6.3768401666926344E-01
C    2.1656675448505133E+01    1.9364889723353361E+01    6.6171565217575334E-01
C    2.2352489653113086E+01    2.0619937028990567E+01    5.8739535947989352E-01
C    2.3775293030506532E+01    2.0596740445231568E+01    6.2749097810914622E-01
C    2.4529705876092152E+01    2.1812472636102484E+01    6.4201458877239781E-01
C    2.5927763486810779E+01    2.1770234418393464E+01    5.7295604651550580E-01
C    2.2351108254463348E+01    2.3090790485549988E+01    6.6362963962620525E-01
C    2.3775652454047414E+01    2.3047802277130092E+01    5.9565758693514148E-01
C    2.4475588020898513E+01    2.4306410902747526E+01    6.7965546266901944E-01
C    2.5887823943446019E+01    2.4297672296713827E+01    6.3406738159384690E-01
C    2.2334587076029315E+01    2.5528424581506631E+01    6.4099918650660614E-01
C    2.3760992245691686E+01    2.5511249502430417E+01    6.5338376258780162E-01
C    2.4452358695800800E+01    2.6733423853358673E+01    7.3541135863081697E-01
C    2.5884293488928758E+01    2.6712134086571854E+01    7.9106654230107964E-01
C    2.2339020643899524E+01    2.8010081180724683E+01    5.0961750387829496E-01
C    2.3776197575569672E+01    2.7992605284817856E+01    6.8983086925054471E-01
C    2.4487412268617831E+01    2.9194246203376874E+01    6.4445689636052206E-01
C    2.5917800456622658E+01    2.9190696507097496E+01    7.1403868824179284E-01
C    2.2322200621745605E+01    3.0441832979095707E+01    5.5989827657423263E-01
C    2.3761469695264552E+01    3.0431880706386117E+01    6.4548796080846582E-01
C    2.4487495283527416E+01    1.9364291543003592E+01    7.2076026271196647E-01
C    2.5936488337160316E+01    1.9359248597802722E+01    7.2631740593664962E-01
C    2.6652028404155377E+01    2.0574180393507696E+01    4.9682230179068920E-01
C    2.8065140615817395E+01    2.0567199707906170E+01    5.0682482521134364E-01
C    2.8751133096796806E+01    2.1821542557058066E+01    5.5534052051893035E-01
C    3.0158732593735518E+01    2.1810473666154703E+01    5.9599537656761814E-01
C    2.6618611268754947E+01    2.3052175350309202E+01    5.8442348566833857E-01
C    2.8046253394777278E+01    2.3044016038642976E+01    5.2619397685156022E-01
C    2.8756793408533511E+01    2.4270886434509627E+01    6.5257659378096322E-01
C    3.0138119167968039E+01    2.4281540407525124E+01    6.8291290400465743E-01
C    2.6611347882951460E+01    2.5474689261735325E+01    6.8359618297364833E-01
C    2.8040436532539658E+01    2.5504305651516457E+01    6.4227703925784041E-01
C    2.8734359376890506E+01    2.6742889536191306E+01    6.1935344937961545E-01
C    3.0157188849663967E+01    2.6774980777659891E+01    4.9226082821475575E-01
C    2.6588144479223352E+01    2.7952455926644397E+01    7.9749649450519189E-01
C    2.8029199771906981E+01    2.7939193088795040E+01    7.6861205554294043E-01
C    2.8744616337072483E+01    2.9171074539208984E+01    6.6338046627461733E-01
C    3.0162978875035677E+01    2.9202922144976753E+01    6.1050377334487482E-01
C    2.6622962454130157E+01    3.0431565496314441E+01    7.0863755971833531E-01
C    2.8041374844527507E+01    3.0419274491392983E+01    6.4466973439730269E-01
C    2.8772378388449866E+01    1.9316476050714012E+01    6.4832442016710812E-01
C    3.0213630751109502E+01    1.9350380547129504E+01    7.1814060228136212E-01
O    2.5410676615286610E+02    9.6535487239314406E+01    8.0135293940348564E+00
H    2.5374408569454130E+02    9.5682191608200554E+01    7.6946200930489432E+00
H    2.5476509775004945E+02    9.6848963107909256E+01    7.3429049874460857E+00
O    2.6978230092576280E+02    8.9492815134631996E+01    1.6706152623417982E+01
H    2.7017255368161580E+02    8.8674754157040766E+01    1.6177986884045943E+01
H    2.6882757616578419E+02    8.9110732649541745E+01    1.6899138043250691E+01
O    2.5855498983054173E+02    1.9932109052527414E+02    8.5062752438367397E+00
H    2.5809114738514887E+02    1.9990109644169641E+02    7.8480271672179978E+00
H    2.5785875603613613E+02    1.9900651551702384E+02    9.1158927174775251E+00
O    3.1215089304670590E+02    1.6359381285126543E+02    7.1063277586338236E+00
H    3.1222902243924631E+02    1.6266919227378369E+02    7.4156681121054309E+00
H    3.1170067082637263E+02    1.6415498131352891E+02    7.7527081047109734E+00
O    2.1153875033125723E+02    2.6197458426732965E+02    1.5306566178835128E+01
H    2.1143529140705988E+02    2.6203979031148748E+02    1.6239742913503015E+01
H    2.1069998244939308E+02    2.6155262445443947E+02    1.5022344302356114E+01
O    3.1640071090858407E+02    2.0035868826355679E+02    1.1097368453002174E+01
H    3.1587043188386184E+02    2.0064167069832916E+02    1.0278558903227369E+01
H    3.1577979840008459E+02    1.9965795547254086E+02    1.1349896242994054E+01
O    2.9230131633759601E+02    2.4573397915773774E+02    1.8764741500719495E+01
H    2.9227567307931821E+02    2.4477438547294241E+02    1.8964874343325434E+01
H    2.9301483558345996E+02    2.4583175096589039E+02    1.8079832837239781E+01
O    2.6434679768435626E+02    1.2053641171211486E+02    1.0425186713048472E+01
H    2.6387053448917550E+02    1.1988599772522889E+02    9.9206007618355638E+00
H    2.6463530968053021E+02    1.2119260523054247E+02    9.7209517868297706E+00
O    1.3876783386044843E+02    1.6995040840123769E+02    6.4119505002140382E+00
H    1.3949372427339509E+02    1.7035689976711086E+02    6.9828199455503936E+00
H    1.3895107880291752E+02    1.7023556614557734E+02    5.4462316059891664E+00
O    3.0697203314589120E+02    1.6361680937389787E+02    1.8947055638859531E+01
H    3.0784183922213663E+02    1.6319804645644649E+02    1.8820869455537505E+01
H    3.0703272400067243E+02    1.6447801074709855E+02    1.9463185024473614E+01
O    2.4153117357668276E+02    1.8478396183617267E+02    6.8714990037370107E+00
H    2.4064158708068780E+02    1.8483910627297709E+02    7.2372230034782810E+00
H    2.4134763065229407E+02    1.8492080012726407E+02    5.9032559694654401E+00
O    2.0270466198781392E+02    1.2759106896568589E+02    1.0651062141626655E+01
H    2.0304215771152397E+02    1.2787434564179641E+02    9.7861763456116879E+00
H    2.0339475231150607E+02    1.2775391497655183E+02    1.1251402739615346E+01
O    3.3882151788317691E+02    7.4313799373624704E+01    5.1282439772521231E+00
H    3.3856437714783544E+02    7.3488271584577973E+01    4.6240978714507026E+00
H    3.3979852318409371E+02    7.4298339155540020E+01    5.3435774582115565E+00
O    2.8504772148617275E+02    7.2198806265936923E+01    1.8179574066362921E+01
H    2.8483198780093619E+02    7.1725005177631473E+01    1.7328119463785953E+01
H    2.8485791901665038E+02    7.1534466106785032E+01    1.8910809461746972E+01
O    2.3802304233284076E+02    2.6740544084583701E+02    1.8719172083175160E+01
H    2.3748823465475567E+02    2.6794290539612336E+02    1.8214496385124548E+01
H    2.3755004662167261E+02    2.6650692068452815E+02    1.8505749664291844E+01
O    2.8264773913812144E+02    2.9964063731355265E+02    4.4202840559420684E+00
H    2.8311134338627761E+02    3.0043393508915966E+02    4.0352188225402674E+00
H    2.8325382828425626E+02    2.9887089343270418E+02    4.1323395302501886E+00
O    2.0882435699031231E+02    1.9222141301808259E+02    1.0185925596018272E+01
H    2.0808745821233902E+02    1.9250432675832442E+02    9.6001157606170135E+00
H    2.0961398560436197E+02    1.9293137303257561E+02    1.0137405017698693E+01
O    3.0245768450219845E+02    1.3964120048141504E+02    1.8532972622253531E+01
H    3.0173038284750902E+02    1.3893292299277309E+02    1.8478895297460618E+01
H    3.0220710894120924E+02    1.4056666857066077E+02    1.8641170260454771E+01
O    2.2445708053327169E+02    8.6662001183187812E+01    1.1013617406716470E+01
H    2.2382410277840165E+02    8.6442185609043378E+01    1.1701143770254330E+01