 # Version information for this restart file 
 # current date 2019-01-28 05:25:12.641
 # current working dir /scratch/snx3000/gtocci/gtocci/MEMBRANES/AIMD_US_IONS_GRA/potassium/aimd_us_pot/us_10
 # Program compiled at                             Thu Oct 11 22:01:03 CEST 2018
 # Program compiled on                                                  daint104
 # Program compiled for                                    CRAY_XC50-gfortran_mc
 # Source code revision number                                     git:be74c20a5
 &GLOBAL
   PRINT_LEVEL  LOW
   PROJECT_NAME GRAS
   RUN_TYPE  MD
   WALLTIME 10200
 &END GLOBAL
 &MOTION
   &MD
     ENSEMBLE  NVT
     STEPS  100000
     TIMESTEP     9.9999999999999989E-01
     STEP_START_VAL  41052
     TIME_START_VAL     4.1051999999990294E+04
     ECONS_START_VAL    -8.3207046813459274E+03
     TEMPERATURE     3.0000000000000000E+02
     TEMP_KIND  T
     &BAROSTAT
       PRESSURE     1.0000000000000000E+00
       TIMECON     9.9999999999999986E+01
       VIRIAL  Z
     &END BAROSTAT
     &THERMOSTAT
       TYPE  NOSE
       REGION  GLOBAL
       &NOSE
         LENGTH  4
         TIMECON     9.9999999999999986E+01
         MTS  2
         &COORD
               1.2870634484782156E-01    2.0967089805632506E+00    2.0975894245245559E+01   -1.6989157296806674E+01
         &END COORD
         &VELOCITY
               8.8472101065817183E-06    3.5334041196867142E-04    2.2965112141049081E-04    1.6125449129674333E-04
         &END VELOCITY
         &MASS
               7.0145132684705392E+07    1.6237299232570693E+04    1.6237299232570693E+04    1.6237299232570693E+04
         &END MASS
         &FORCE
               2.7179389451484418E-10    2.7962989336430226E-07    6.6339432880085365E-08   -5.7703762850090783E-09
         &END FORCE
       &END NOSE
     &END THERMOSTAT
     &AVERAGES  T
       &RESTART_AVERAGES
         ITIMES_START  1
         AVECPU     4.6872087754938278E+01
         AVEHUGONIOT     0.0000000000000000E+00
         AVETEMP_BARO     0.0000000000000000E+00
         AVEPOT    -8.3232684658700855E+03
         AVEKIN     2.0542387479921245E+00
         AVETEMP     3.0031320247954704E+02
         AVEKIN_QM     0.0000000000000000E+00
         AVETEMP_QM     0.0000000000000000E+00
         AVEVOL     2.1331414786628101E+05
         AVECELL_A     4.8437460238125411E+01
         AVECELL_B     4.6608961231944697E+01
         AVECELL_C     9.4486306644279537E+01
         AVEALPHA     9.0000000000000057E+01
         AVEBETA     9.0000000000000057E+01
         AVEGAMMA     9.0000000000000057E+01
         AVE_ECONS    -1.6943251020949088E+00
         AVE_PRESS     0.0000000000000000E+00
         AVE_PXX     0.0000000000000000E+00
       &END RESTART_AVERAGES
     &END AVERAGES
     &PRINT
       &TEMP_KIND  SILENT
       &END TEMP_KIND
     &END PRINT
   &END MD
   &FREE_ENERGY
     &METADYN
       MIN_DISP    -1.0000000000000000E+00
       OLD_HILL_NUMBER  0
       OLD_HILL_STEP  0
       DO_HILLS  F
       STEP_START_VAL  41052
       NHILLS_START_VAL  0
       &METAVAR
         SCALE     1.0000000000000000E+00
         COLVAR  1
       &END METAVAR
       &PRINT
         &COLVAR  SILENT
           COMMON_ITERATION_LEVELS  3
           &EACH
             MD  1
           &END EACH
         &END COLVAR
       &END PRINT
     &END METADYN
   &END FREE_ENERGY
   &CONSTRAINT
     &COLLECTIVE
       COLVAR  1
       INTERMOLECULAR  T
       &RESTRAINT
         K     4.4625385281452931E-04
       &END RESTRAINT
     &END COLLECTIVE
     &COLVAR_RESTART
           9.4486306644282170E+00
     &END COLVAR_RESTART
   &END CONSTRAINT
   &PRINT
     &TRAJECTORY  SILENT
       &EACH
         MD  1
       &END EACH
     &END TRAJECTORY
     &VELOCITIES  SILENT
       &EACH
         MD  1
       &END EACH
     &END VELOCITIES
     &FORCES  SILENT
       UNIT eV*angstrom^-1
       &EACH
         MD  1
       &END EACH
     &END FORCES
     &RESTART  SILENT
       &EACH
         MD  1
       &END EACH
     &END RESTART
     &RESTART_HISTORY  SILENT
       &EACH
         MD  100
       &END EACH
     &END RESTART_HISTORY
   &END PRINT
 &END MOTION
 &FORCE_EVAL
   METHOD  QS
   &DFT
     BASIS_SET_FILE_NAME /users/gtocci/scratch_daint_3000/data_cp2k//BASIS_MOLOPT
     POTENTIAL_FILE_NAME /users/gtocci/scratch_daint_3000/data_cp2k//GTH_POTENTIALS
     WFN_RESTART_FILE_NAME ./GRAS-RESTART.wfn
     CHARGE  1
     &SCF
       MAX_SCF  10
       EPS_SCF     9.9999999999999995E-07
       SCF_GUESS  RESTART
       &OT  T
         MINIMIZER  DIIS
         PRECONDITIONER  FULL_KINETIC
       &END OT
       &OUTER_SCF  T
         EPS_SCF     9.9999999999999995E-07
         MAX_SCF  30
       &END OUTER_SCF
       &PRINT
         &RESTART  SILENT
           ADD_LAST  NUMERIC
           &EACH
             QS_SCF  50
           &END EACH
         &END RESTART
       &END PRINT
     &END SCF
     &QS
       MAP_CONSISTENT  T
       EXTRAPOLATION  ASPC
       EXTRAPOLATION_ORDER  4
     &END QS
     &MGRID
       NGRIDS  5
       CUTOFF     4.6000000000000000E+02
     &END MGRID
     &XC
       DENSITY_CUTOFF     1.0000000000000000E-10
       GRADIENT_CUTOFF     1.0000000000000000E-10
       TAU_CUTOFF     1.0000000000000000E-10
       &XC_GRID
         XC_DERIV  SPLINE2_SMOOTH
       &END XC_GRID
       &XC_FUNCTIONAL  NO_SHORTCUT
         &LIBXC  T
           FUNCTIONAL XC_GGA_X_OPTB88_VDW
         &END LIBXC
         &VWN  T
         &END VWN
       &END XC_FUNCTIONAL
       &VDW_POTENTIAL
         POTENTIAL_TYPE  NON_LOCAL
         &NON_LOCAL
           TYPE  DRSLL
           VERBOSE_OUTPUT  T
           KERNEL_FILE_NAME /users/gtocci/scratch_daint_3000/data_cp2k//vdW_kernel_table.dat
         &END NON_LOCAL
       &END VDW_POTENTIAL
     &END XC
     &REAL_TIME_PROPAGATION
       INITIAL_WFN  SCF_WFN
     &END REAL_TIME_PROPAGATION
     &PRINT
       &MULLIKEN  SILENT
         FILENAME =GRAS.mulliken
       &END MULLIKEN
     &END PRINT
   &END DFT
   &SUBSYS
     &CELL
       A     2.5632000000000001E+01    0.0000000000000000E+00    0.0000000000000000E+00
       B     0.0000000000000000E+00    2.4664400000000022E+01    0.0000000000000000E+00
       C     0.0000000000000000E+00    0.0000000000000000E+00    5.0000000000000028E+01
       MULTIPLE_UNIT_CELL  1 1 1
     &END CELL
     &COORD
C    1.3201435104419124E+01    2.6239699596877690E+00    2.9519315943484927E+00
C    1.4609404165496233E+01    2.6376919402428656E+00    2.8772080246861709E+00
C    1.5323252053723305E+01    3.8779117287625651E+00    2.9056928738634853E+00
C    1.6731117267325981E+01    3.8432675320916223E+00    2.8961890276534454E+00
C    1.3205796826555881E+01    5.1110211669463572E+00    2.9548496608177484E+00
C    1.4617567828428193E+01    5.1120357210161718E+00    2.8542545559429584E+00
C    1.5358159789332873E+01    6.3178995849534951E+00    2.8040142916868001E+00
C    1.6750041527122445E+01    6.3439582897505105E+00    2.8100708253146869E+00
C    1.3169134324308652E+01    7.6031933138624055E+00    2.8827036225296205E+00
C    1.4600825755267797E+01    7.5588071613266550E+00    2.9049376616168625E+00
C    1.5318328097694481E+01    8.7815346526626676E+00    3.0184691912359267E+00
C    1.6712081364130629E+01    8.7736387203155246E+00    3.0757617269514772E+00
C    1.3150535684442472E+01    1.0039934069318187E+01    2.8234269259959994E+00
C    1.4573028432473489E+01    1.0039362530670561E+01    3.0337971132041526E+00
C    1.5277129937559117E+01    1.1296565959566914E+01    3.0674615194256356E+00
C    1.6698477590118081E+01    1.1272283241477203E+01    3.2032095065703929E+00
C    1.3152151837490827E+01    1.2484276957935087E+01    2.9666926230324804E+00
C    1.4561327806474315E+01    1.2520691250165227E+01    3.0202748762233416E+00
C    1.5277418615062791E+01    1.3908420695217778E+00    2.8778357187878822E+00
C    1.6708898300828128E+01    1.4027571075670937E+00    2.8011440951027957E+00
C    1.7423939569760748E+01    2.6429716115608324E+00    2.8383557630977077E+00
C    1.8866782112421145E+01    2.6701999010867929E+00    2.8622443132738109E+00
C    1.9596675319792038E+01    3.8650453830813238E+00    2.9451580651409244E+00
C    2.0999874962788493E+01    3.8806401752151718E+00    2.8834863585748942E+00
C    1.7460559610147094E+01    5.0871551787469942E+00    2.8733360900824070E+00
C    1.8871585227863811E+01    5.0467819036754165E+00    2.9434448490348704E+00
C    1.9581758453937152E+01    6.3016449112473190E+00    2.9120588189938439E+00
C    2.0998735364789521E+01    6.3400008471188265E+00    2.8663168039133429E+00
C    1.7440770885151807E+01    7.5747236803725881E+00    2.9121598428457993E+00
C    1.8882014097735183E+01    7.5582979624585702E+00    2.9976739950042051E+00
C    1.9558541602655946E+01    8.7966380302459886E+00    3.0544007027615900E+00
C    2.0978321139489566E+01    8.7699018932099104E+00    3.0870755832545926E+00
C    1.7421754971198553E+01    1.0028518716097803E+01    3.2671213106335881E+00
C    1.8860662512277088E+01    1.0008447923400388E+01    3.1932917933316154E+00
C    1.9598666362543131E+01    1.1252281593751425E+01    3.2421260867214787E+00
C    2.1036331182740046E+01    1.1272143428197156E+01    3.2298819920843180E+00
C    1.7429169971635616E+01    1.2496179135647839E+01    3.2081993338099752E+00
C    1.8886994394559487E+01    1.2536467315893216E+01    3.2366570484239401E+00
C    1.9559957265862657E+01    1.4176130716438877E+00    2.8601818604595048E+00
C    2.0956821875756038E+01    1.4197137654873833E+00    2.7786764779034510E+00
C    2.1701005395570466E+01    2.6400617703940767E+00    2.7927307023773649E+00
C    2.3126074298762035E+01    2.6630559218813219E+00    2.6978396639855915E+00
C    2.3834672728668089E+01    3.8980883315071924E+00    2.8107106119584495E+00
C    2.5245255741986615E+01    3.8872107286720663E+00    2.9018798892119468E+00
C    2.1715513802948774E+01    5.1173881927414193E+00    2.7871756636531804E+00
C    2.3136867911456996E+01    5.1075416457245995E+00    2.8343656082417574E+00
C    2.3864600717257371E+01    6.3031550353142052E+00    2.9341520479506662E+00
C    2.5284667782506851E+01    6.3496792071901371E+00    2.9946367501582318E+00
C    2.1719617617801216E+01    7.5875263921638032E+00    2.9433480907666438E+00
C    2.3128541653614523E+01    7.5669991984751999E+00    2.9173258709361178E+00
C    2.3801016608149098E+01    8.7819899044274337E+00    2.9510498406939898E+00
C    2.5235118441261942E+01    8.8256680940706271E+00    2.9681349929622458E+00
C    2.1705501920010722E+01    1.0018020605435332E+01    3.1530154403754942E+00
C    2.3098389506101434E+01    1.0003354953998992E+01    3.0790007857125423E+00
C    2.3808224157871749E+01    1.1265985488524873E+01    3.0821946307027215E+00
C    2.5206106626775476E+01    1.1286712827174977E+01    3.0019488871575457E+00
C    2.1753886597629773E+01    1.2529474015903574E+01    3.2740571239545786E+00
C    2.3163078161016561E+01    1.2512549151559872E+01    3.1880850826397902E+00
C    2.3826269645910802E+01    1.4236401533069285E+00    2.8124355917663264E+00
C    2.5239775820927193E+01    1.3799532871349565E+00    2.8571258528740620E+00
C    1.3123504512622910E+01    1.4968155618610107E+01    3.0412736569477192E+00
C    1.4565014625895646E+01    1.4974557622136729E+01    3.0854214367037933E+00
C    1.5257256993620523E+01    1.6201174909885445E+01    3.1299074351040668E+00
C    1.6695370518964413E+01    1.6198934309320784E+01    3.1495941874071272E+00
C    1.3131187303569753E+01    1.7423828657483256E+01    2.9832402063178267E+00
C    1.4523960737742854E+01    1.7426342041968539E+01    3.0984521015734900E+00
C    1.5264657157463535E+01    1.8633787068562263E+01    3.0684441954983868E+00
C    1.6688744769815045E+01    1.8657590132043161E+01    3.0853876502467497E+00
C    1.3158276882729318E+01    1.9938391728577859E+01    3.0778282125857106E+00
C    1.4587105247882571E+01    1.9926268321689783E+01    3.0582983699985764E+00
C    1.5255761784138230E+01    2.1200162426916989E+01    2.9257404334803430E+00
C    1.6696690904316700E+01    2.1189663844233696E+01    2.9721168314761583E+00
C    1.3176995325411896E+01    2.2417584854355606E+01    2.8604508766090868E+00
C    1.4577848919162021E+01    2.2399054649937316E+01    2.7990415374324065E+00
C    1.5236637551845970E+01    2.3625383773033047E+01    2.7715432516230862E+00
C    1.6646197968904072E+01    2.3637453125645127E+01    2.8354740963934346E+00
C    1.3092587166243911E+01    2.4888876791965590E+01    2.8200464060916857E+00
C    1.4533614178724084E+01    2.4875493267652999E+01    2.8138177425253446E+00
C    1.5276869987836530E+01    1.3749009416653653E+01    3.1110273469552570E+00
C    1.6707377357311710E+01    1.3728906394061148E+01    3.0968398741169429E+00
C    1.7425226124166155E+01    1.4957205544390746E+01    3.1414766267811225E+00
C    1.8844457072923198E+01    1.4992215021423359E+01    3.2612156073986465E+00
C    1.9533368098503249E+01    1.6200062232573273E+01    3.2764711358391629E+00
C    2.0939401758697734E+01    1.6221641825935926E+01    3.3025236233893103E+00
C    1.7388666222074949E+01    1.7449233983535326E+01    3.1615073463146541E+00
C    1.8819636142342418E+01    1.7458078335425434E+01    3.2121395285740197E+00
C    1.9490445157769202E+01    1.8719784264358101E+01    3.1769701272056579E+00
C    2.0910723362764152E+01    1.8687360268941717E+01    3.1827737878844355E+00
C    1.7351495060791773E+01    1.9935415734399026E+01    3.0516368784742167E+00
C    1.8747758220973989E+01    1.9952799207185425E+01    3.0793254356209054E+00
C    1.9481444485905158E+01    2.1162132626146651E+01    3.0011108913795814E+00
C    2.0908406615480089E+01    2.1182073134897554E+01    3.0075594577324418E+00
C    1.7379674551428639E+01    2.2406500606386441E+01    2.8478941937140285E+00
C    1.8793976594989399E+01    2.2384281265929392E+01    2.8481646815968356E+00
C    1.9520026145735031E+01    2.3603371109609341E+01    2.8174955652640796E+00
C    2.0948445710334482E+01    2.3610034147105473E+01    2.9642548100370338E+00
C    1.7417021062861171E+01    2.4862358404002599E+01    2.7867161856775349E+00
C    1.8864352533600563E+01    2.4840434930563465E+01    2.8326038073244555E+00
C    1.9597987347855202E+01    1.3784216945836123E+01    3.2828848475948287E+00
C    2.1005314391709170E+01    1.3732537930989521E+01    3.3219147525984458E+00
C    2.1699581286700653E+01    1.4998857364564181E+01    3.2847631355928120E+00
C    2.3118706381599935E+01    1.4992239767192787E+01    3.2114830562922885E+00
C    2.3814427797550049E+01    1.6245778346613264E+01    3.1486546489123781E+00
C    2.5240245351806749E+01    1.6232385234766287E+01    3.0018828832864313E+00
C    2.1624107767823958E+01    1.7427192540044363E+01    3.2719783164180827E+00
C    2.3094886015682608E+01    1.7487078412966795E+01    3.1835078461546948E+00
C    2.3814696792182573E+01    1.8680823725816683E+01    3.1186400177374010E+00
C    2.5254939382336264E+01    1.8658271094366256E+01    3.0536085855387420E+00
C    2.1630864038981422E+01    1.9942213332005778E+01    3.1431037589429729E+00
C    2.3068871439158759E+01    1.9897351927769133E+01    3.1475458727960293E+00
C    2.3785572111219867E+01    2.1101432262899472E+01    3.0367467631214997E+00
C    2.5238459134128743E+01    2.1097966206499148E+01    3.0495594900165570E+00
C    2.1664398191880711E+01    2.2392957969975676E+01    3.0690620066165764E+00
C    2.3119620981986856E+01    2.2346609416995847E+01    3.0515116979189347E+00
C    2.3796972339925183E+01    2.3608396443675538E+01    2.9659329956551681E+00
C    2.5216580530609782E+01    2.3620030721351185E+01    2.8619307726562204E+00
C    2.1639941386630451E+01    2.4853874781644080E+01    2.8889590254082447E+00
C    2.3069888446142752E+01    2.4861705430447749E+01    2.9237750599188086E+00
C    2.3854538196868468E+01    1.3738292782435416E+01    3.1227536163378966E+00
C    2.5280698959795291E+01    1.3738538897855994E+01    2.9479264106382779E+00
C    2.5915808026035382E+01    2.6340732193790024E+00    2.9747277324354036E+00
C    2.7358698070926774E+01    2.6453052735327431E+00    3.0811237972555676E+00
C    2.8071985032869545E+01    3.8876487442343022E+00    3.1233135141590278E+00
C    2.9482304887700934E+01    3.8524037984907351E+00    3.2123784971203611E+00
C    2.5993649712237413E+01    5.1218692941650090E+00    3.0314446889930156E+00
C    2.7401263713930820E+01    5.1695965784862530E+00    3.1331008031176095E+00
C    2.8109605505285231E+01    6.3793493534653596E+00    3.2310378879952979E+00
C    2.9526435645836418E+01    6.3276217336614442E+00    3.1266320217633208E+00
C    2.5943484664660403E+01    7.6041407120291558E+00    3.0015645855992790E+00
C    2.7359697138676410E+01    7.5826955004392413E+00    3.1202605495757929E+00
C    2.8061033090317924E+01    8.8185651410744867E+00    3.0874897638581751E+00
C    2.9529143382274043E+01    8.7902354583085121E+00    3.0437690836814997E+00
C    2.5985008332684721E+01    1.0061908716731851E+01    2.9398564085983008E+00
C    2.7375789496982200E+01    1.0043104243417265E+01    2.9607726346063119E+00
C    2.8092762127650715E+01    1.1235116852076512E+01    3.0372300057157937E+00
C    2.9514270299433274E+01    1.1257214265626370E+01    3.0796640525987535E+00
C    2.5960692286649639E+01    1.2509258837801477E+01    2.9910116049761384E+00
C    2.7363505804403268E+01    1.2484312160486670E+01    3.0709492406245502E+00
C    2.8043690687079707E+01    1.4030349973924310E+00    3.0379784169113857E+00
C    2.9514591568328850E+01    1.3988297970715109E+00    3.0736778578114663E+00
C    3.0206214684368053E+01    2.6325839865751983E+00    3.0809133699268592E+00
C    3.1678488089636996E+01    2.6760975912982188E+00    2.9808656211125197E+00
C    3.2412535342823517E+01    3.8759520456105174E+00    3.0483378301485424E+00
C    3.3853847367837936E+01    3.8787763002133615E+00    2.9882102943607962E+00
C    3.0233999284517953E+01    5.0786925945929848E+00    3.2039710056113271E+00
C    3.1671426110713014E+01    5.0861641967919136E+00    3.1025343740221216E+00
C    3.2376932534110132E+01    6.3540822962343926E+00    3.0469640726668685E+00
C    3.3850441975823450E+01    6.3499882363589606E+00    2.9172835402581785E+00
C    3.0227378165428899E+01    7.5651387042177252E+00    3.0181812548948805E+00
C    3.1650941420684379E+01    7.5778536197203987E+00    2.9541212189651236E+00
C    3.2383802654339163E+01    8.8111189294736256E+00    2.9445585883265197E+00
C    3.3823139287251706E+01    8.8026717502392717E+00    2.9387995675274068E+00
C    3.0229581927174777E+01    1.0017367262220276E+01    3.0641381701540369E+00
C    3.1630089583356884E+01    1.0034031996449556E+01    3.0225905638355495E+00
C    3.2343365989411787E+01    1.1285409020692230E+01    3.0579851826023088E+00
C    3.3808878318533615E+01    1.1299477225656345E+01    2.9237881963963073E+00
C    3.0223208937719821E+01    1.2514470375790808E+01    3.0876522737448759E+00
C    3.1659048180483122E+01    1.2537856914449421E+01    3.0216921205957994E+00
C    3.2430948616734483E+01    1.4205192638570163E+00    2.9108513058434196E+00
C    3.3844388416410496E+01    1.4028873002331894E+00    2.9447759260583481E+00
C    3.4590223865981265E+01    2.6407062314405314E+00    2.9763204981758884E+00
C    3.6002278461044668E+01    2.6894301974847616E+00    3.0094959440685760E+00
C    3.6712272762502145E+01    3.8852289120367849E+00    2.9604287427069735E+00
C    3.8125199974995155E+01    3.8944312186129530E+00    2.9708518385434162E+00
C    3.4577605206637166E+01    5.1247733580062729E+00    2.9457240166867185E+00
C    3.5999864449707161E+01    5.1386995706395009E+00    2.8831296467760223E+00
C    3.6697607735629255E+01    6.3666683157181856E+00    2.7893123015075330E+00
C    3.8104291875217513E+01    6.3659816621716230E+00    2.8595161784973606E+00
C    3.4547981472204029E+01    7.5716477457244471E+00    2.8644999817894368E+00
C    3.5982126307225194E+01    7.5884841540061467E+00    2.8789683751503850E+00
C    3.6672191939466067E+01    8.7915752040739346E+00    2.9323600879991623E+00
C    3.8113516445735002E+01    8.8201725774720714E+00    2.8752235200934857E+00
C    3.4523727671324373E+01    1.0046773186584193E+01    2.9585623480967684E+00
C    3.5944878183539551E+01    1.0016099180639557E+01    2.9552568595019535E+00
C    3.6640838912809606E+01    1.1251282093794016E+01    2.8627360193192719E+00
C    3.8081188266987766E+01    1.1277419399765661E+01    2.7877055904487356E+00
C    3.4506465819045090E+01    1.2520909601850917E+01    2.8522314494902039E+00
C    3.5929436135628357E+01    1.2475149122124620E+01    2.8148142038028974E+00
C    3.6660992759838642E+01    1.4300849704019218E+00    3.0102388705127736E+00
C    3.8052422895931350E+01    1.4213061168720544E+00    3.0182745591061151E+00
C    2.5944365921189977E+01    1.5001883069910660E+01    2.9426244091564158E+00
C    2.7375931427533988E+01    1.4954715754014639E+01    3.0706574061852039E+00
C    2.8084165302133385E+01    1.6170334658219968E+01    3.1846883009678648E+00
C    2.9525742707727726E+01    1.6198879596171476E+01    3.1074909475832215E+00
C    2.5973971023127856E+01    1.7439659414266622E+01    3.0517736966936311E+00
C    2.7376693855102335E+01    1.7390048696655125E+01    3.1607309832310277E+00
C    2.8119759119728993E+01    1.8653543569108049E+01    3.1532738219079248E+00
C    2.9541613641216859E+01    1.8673721496047456E+01    3.0346665465270801E+00
C    2.5979143778708313E+01    1.9883111130005769E+01    3.0583479259892656E+00
C    2.7425382379736057E+01    1.9893325723325589E+01    3.0921457468640288E+00
C    2.8112923589756114E+01    2.1141416507718869E+01    2.9643895433736480E+00
C    2.9571711569970329E+01    2.1175423330114366E+01    2.8861377341170122E+00
C    2.5932088892026545E+01    2.2361922032721200E+01    3.0027603979316564E+00
C    2.7400880798699628E+01    2.2379749841234400E+01    2.9860657164712978E+00
C    2.8123395418441124E+01    2.3582791276024935E+01    2.8714325820877096E+00
C    2.9553581787988342E+01    2.3613388162759723E+01    2.9369029154294677E+00
C    2.5924503353061937E+01    2.4825237569455268E+01    2.8822311954939583E+00
C    2.7366196568989722E+01    2.4825326275954737E+01    2.8763469490129618E+00
C    2.8066979398563102E+01    1.3720629730495544E+01    3.1326013463881970E+00
C    2.9522463357714429E+01    1.3728254165233169E+01    3.1414185467312556E+00
C    3.0225169496875314E+01    1.4975667255652739E+01    3.1163938575150776E+00
C    3.1641847782008885E+01    1.5025105102080063E+01    2.9709086767575998E+00
C    3.2357940432052274E+01    1.6247782510856684E+01    2.9318975276034105E+00
C    3.3801971068620219E+01    1.6239115720053363E+01    2.8836322308022915E+00
C    3.0225669992143786E+01    1.7438320765222844E+01    3.0368447190797525E+00
C    3.1652569733316149E+01    1.7477489800518946E+01    2.9496451823407410E+00
C    3.2354332726903614E+01    1.8721997435120624E+01    2.8245228353523757E+00
C    3.3790721242906528E+01    1.8723392127333867E+01    2.7914973351804471E+00
C    3.0242727167485391E+01    1.9928520608497163E+01    2.9243326493410984E+00
C    3.1647517355305641E+01    1.9911427157605182E+01    2.6936402097081484E+00
C    3.2389230336122679E+01    2.1179226735129099E+01    2.7590456506667564E+00
C    3.3833379233438237E+01    2.1188657798179570E+01    2.7460839325620463E+00
C    3.0265663371345276E+01    2.2372321416532888E+01    2.8634439236424036E+00
C    3.1675131561089415E+01    2.2391406312439031E+01    2.8029433162688595E+00
C    3.2395997624089631E+01    2.3630187095967482E+01    2.9114066647430050E+00
C    3.3812551325044744E+01    2.3614827030364651E+01    2.8763303541583936E+00
C    3.0230493073192701E+01    2.4872571342351282E+01    3.0159665578991879E+00
C    3.1673695076222003E+01    2.4848516241668364E+01    2.8908228532099631E+00
C    3.2349320156378248E+01    1.3762722611069677E+01    2.9105654951394371E+00
C    3.3779066345324217E+01    1.3740485322257156E+01    2.8124990419228766E+00
C    3.4469041988093046E+01    1.5002056545676302E+01    2.8516663893892940E+00
C    3.5932306620895574E+01    1.4985345170074114E+01    2.8666587014398730E+00
C    3.6623508977095071E+01    1.6216337902022602E+01    2.9429250352217089E+00
C    3.8051314569596315E+01    1.6197089761123461E+01    2.9532627911081475E+00
C    3.4533403189003572E+01    1.7456349300348542E+01    2.8348157665729272E+00
C    3.5924756098385416E+01    1.7475867258348018E+01    2.8876629759790884E+00
C    3.6646505965298346E+01    1.8728918092814933E+01    2.7996726939047836E+00
C    3.8091152516348799E+01    1.8720801761933803E+01    2.9660984175226783E+00
C    3.4522754766298334E+01    1.9952059498934851E+01    2.7740242026647755E+00
C    3.5955191583708952E+01    1.9968887265324870E+01    2.7975085683036531E+00
C    3.6666593285786590E+01    2.1167237059254369E+01    2.8477902616266753E+00
C    3.8087980708063689E+01    2.1147559989165739E+01    2.9340262808217772E+00
C    3.4555704690667987E+01    2.2410054895258718E+01    2.7884674554112436E+00
C    3.5996385726476788E+01    2.2402803102152895E+01    2.8127222998929158E+00
C    3.6685492600592902E+01    2.3629557523001946E+01    2.8442331339101767E+00
C    3.8091502661791679E+01    2.3628958396308718E+01    2.7935236670883183E+00
C    3.4534643328292255E+01    2.4826692337323550E+01    2.9042341167283485E+00
C    3.5937842662140817E+01    2.4840597446109118E+01    2.9106244784877733E+00
C    3.6629043475608796E+01    1.3711268554672552E+01    2.9009605902703250E+00
C    3.8058808061325784E+01    1.3699251105964258E+01    2.9534272369771650E+00
O    4.3622093146572195E+02    1.0135179556923672E+01    1.3960423463456717E+01
H    4.3535484665376595E+02    1.0577108838747876E+01    1.4175969279274625E+01
H    4.3610249631283301E+02    9.1397062462559138E+00    1.4088307467874236E+01
O    3.6196664290391197E+02    6.1297308815956640E+01    9.5271292630584181E+00
H    3.6177101037502962E+02    6.1336502363922939E+01    1.0541705105957027E+01
H    3.6228514647741167E+02    6.0419555606591096E+01    9.3726015851277271E+00
O    3.4363351184816673E+02    1.5804685435813232E+02    2.2104359584007433E+01
H    3.4369464170084586E+02    1.5787740666126399E+02    2.3073668893584490E+01
H    3.4392981666498929E+02    1.5715937956893268E+02    2.1746279300152299E+01
O    4.5689120151736120E+02    1.8170923145918810E+01    1.0928191740660731E+01
H    4.5735564837683177E+02    1.8691172289656180E+01    1.0234588343790103E+01
H    4.5723569223552050E+02    1.8368044151057649E+01    1.1836205171881378E+01
O    3.2442516927994905E+02    1.5395379168188651E+02    1.5173090557964855E+01
H    3.2365631242324054E+02    1.5438097956757858E+02    1.4748975723265243E+01
H    3.2412912870229252E+02    1.5338461142643959E+02    1.5902673951657377E+01
O    2.9779891853878797E+02    6.3048466471236672E+01    1.0388336587422836E+01
H    2.9756599231299566E+02    6.2116986651962556E+01    9.9716209403436729E+00
H    2.9762688074540245E+02    6.3653358256457622E+01    9.6745835243348068E+00
O    3.4977630216426491E+02    5.2601702384990226E+01    1.3363095403263394E+01
H    3.4961198011137100E+02    5.3268415979027459E+01    1.4058058923400422E+01
H    3.4967791994351791E+02    5.1701093116093858E+01    1.3801109428539478E+01
O    3.6917475419744903E+02    2.0428071520433040E+01    1.9366012902717070E+01
H    3.6981372998303374E+02    2.0467748357664256E+01    2.0152561038462778E+01
H    3.6908651768578142E+02    2.1317049233682763E+01    1.8929740857337290E+01
O    2.6607610995071957E+02    5.0787504164767491E+01    1.5017943365801674E+01
H    2.6629910716817926E+02    5.0030570530637235E+01    1.4430577046981515E+01
H    2.6685672883761964E+02    5.1084880405143771E+01    1.5599667898626121E+01
O    3.8424820365075379E+02    2.9091861312503223E+01    1.1300196688955941E+01
H    3.8479454129017427E+02    2.9705685894421180E+01    1.1882417359423339E+01
H    3.8331446549891075E+02    2.8974386852756215E+01    1.1767049762646783E+01
O    3.4299257549520865E+02    9.5106064245669529E+01    6.3193997313858770E+00
H    3.4224722398331238E+02    9.4601793662382974E+01    5.9554717281696465E+00
H    3.4270863844848037E+02    9.6070468402226027E+01    6.1687843352247933E+00
O    3.2549343623858448E+02    5.7780013520495935E+01    1.4730925253101093E+01
H    3.2527576989609270E+02    5.7822875198584839E+01    1.3771367596942159E+01
H    3.2551232897759490E+02    5.6859680985036711E+01    1.5035166176391659E+01
O    3.8359219823152796E+02    1.6290461794643686E+01    6.5473550260928519E+00
H    3.8276285498373466E+02    1.6349682702938885E+01    5.9322111060211471E+00
H    3.8410266690420627E+02    1.5553398165915983E+01    6.2191528192709251E+00
O    4.0414701277667496E+02   -1.2049993994360310E+02    1.9856583578784701E+01
H    4.0391741313212708E+02   -1.1992178786988077E+02    1.9122464661525896E+01
H    4.0494635164480150E+02   -1.2005749860037277E+02    2.0172288332054443E+01
O    2.6824424353117405E+02    2.4454258504677952E+02    7.3835971946336620E+00
H    2.6765875145006328E+02    2.4426927505829354E+02    6.6249763979080187E+00
H    2.6890122443945637E+02    2.4511188565902225E+02    6.9353229356870507E+00
O    3.9517892497586161E+02    7.9855241876121866E+01    6.2067954648519903E+00
H    3.9567813069060730E+02    7.9926167105587965E+01    7.0344239897861875E+00
H    3.9571305444689153E+02    7.9299180380186741E+01    5.5962115906626506E+00
O    3.4237968141449039E+02    1.3716491696629751E+02    2.0704663104290908E+01
H    3.4334749300905384E+02    1.3721616254025443E+02    2.0889752072603294E+01
H    3.4202081740735673E+02    1.3786201307462710E+02    2.1241764958256105E+01
O    3.2960349428829659E+02    3.5051236881933128E+00    1.5529463288488365E+01
H    3.3013560066924612E+02    3.6706594259879179E+00    1.6296410136802262E+01
H    3.2979879751076885E+02    2.6074772648580251E+00    1.5185564539144533E+01
O    3.2733363827093871E+02    9.1626481984105197E+01    7.2634644309820882E+00
H    3.2708436147307964E+02    9.1169140634620263E+01    8.1502484658165866E+00