 # Version information for this restart file 
 # current date 2020-04-18 07:57:43.669
 # current working dir /scratch/snx3000/gtocci/gtocci/MEMBRANES/AIMD_US_IONS_GRA/us_aimd_new/us_18
 # Program compiled at                              Fri Nov 22 15:19:42 CET 2019
 # Program compiled on                                                  daint102
 # Program compiled for                                   CRAY_XC50-gfortran_gpu
 # Source code revision number                                       git:a698b45
 &GLOBAL
   PRINT_LEVEL  LOW
   PROJECT_NAME GRAS
   RUN_TYPE  MD
   WALLTIME 86400
 &END GLOBAL
 &MOTION
   &MD
     ENSEMBLE  NVT
     STEPS  2000
     TIMESTEP     9.9999999999999989E-01
     STEP_START_VAL  76353
     TIME_START_VAL     7.6352999999936030E+04
     ECONS_START_VAL    -8.3041120931003570E+03
     TEMPERATURE     3.0000000000000000E+02
     TEMP_KIND  T
     &BAROSTAT
       PRESSURE     1.0000000000000000E+00
       TIMECON     9.9999999999999986E+01
       VIRIAL  Z
     &END BAROSTAT
     &THERMOSTAT
       TYPE  NOSE
       REGION  GLOBAL
       &NOSE
         LENGTH  4
         TIMECON     9.9999999999999986E+01
         MTS  2
         &COORD
               1.0835920666585712E-01    6.9249426996690573E+01   -1.2186593990957637E+02    7.7708281455826082E+01
         &END COORD
         &VELOCITY
               1.8641286409845368E-07    2.4111543758918797E-04   -1.2455864356560398E-04    6.0397740652750967E-05
         &END VELOCITY
         &MASS
               7.0145132684705392E+07    1.6237299232570693E+04    1.6237299232570693E+04    1.6237299232570693E+04
         &END MASS
         &FORCE
              -6.6354557578569428E-10   -5.8359894904611071E-08   -3.7335960627946657E-10   -4.2995158163201894E-08
         &END FORCE
       &END NOSE
     &END THERMOSTAT
     &AVERAGES  T
       &RESTART_AVERAGES
         ITIMES_START  1
         AVECPU     3.1387826131829698E+01
         AVEHUGONIOT     0.0000000000000000E+00
         AVETEMP_BARO     0.0000000000000000E+00
         AVEPOT    -8.3065826498520237E+03
         AVEKIN     2.0518202139486812E+00
         AVETEMP     2.9995963223139989E+02
         AVEKIN_QM     0.0000000000000000E+00
         AVETEMP_QM     0.0000000000000000E+00
         AVEVOL     2.1331414786626332E+05
         AVECELL_A     4.8437460238121901E+01
         AVECELL_B     4.6608961231948342E+01
         AVECELL_C     9.4486306644281314E+01
         AVEALPHA     9.0000000000000043E+01
         AVEBETA     9.0000000000000043E+01
         AVEGAMMA     9.0000000000000043E+01
         AVE_ECONS     7.0063501357462576E-01
         AVE_PRESS     0.0000000000000000E+00
         AVE_PXX     0.0000000000000000E+00
       &END RESTART_AVERAGES
     &END AVERAGES
     &PRINT
       &TEMP_KIND  SILENT
       &END TEMP_KIND
     &END PRINT
   &END MD
   &FREE_ENERGY
     &METADYN
       MIN_DISP    -1.0000000000000000E+00
       OLD_HILL_NUMBER  0
       OLD_HILL_STEP  0
       DO_HILLS  F
       STEP_START_VAL  76353
       NHILLS_START_VAL  0
       &METAVAR
         SCALE     1.0000000000000000E+00
         COLVAR  1
       &END METAVAR
       &PRINT
         &COLVAR  SILENT
           COMMON_ITERATION_LEVELS  3
           &EACH
             MD  1
           &END EACH
         &END COLVAR
       &END PRINT
     &END METADYN
   &END FREE_ENERGY
   &CONSTRAINT
     &COLLECTIVE
       COLVAR  1
       INTERMOLECULAR  T
       &RESTRAINT
         K     4.4625385281452931E-04
       &END RESTRAINT
     &END COLLECTIVE
     &COLVAR_RESTART
           1.7007535195970792E+01
     &END COLVAR_RESTART
   &END CONSTRAINT
   &PRINT
     &TRAJECTORY  SILENT
       &EACH
         MD  1
       &END EACH
     &END TRAJECTORY
     &VELOCITIES  SILENT
       &EACH
         MD  1
       &END EACH
     &END VELOCITIES
     &FORCES  SILENT
       UNIT eV*angstrom^-1
       &EACH
         MD  1
       &END EACH
     &END FORCES
     &RESTART  SILENT
       &EACH
         MD  1
       &END EACH
     &END RESTART
     &RESTART_HISTORY  SILENT
       &EACH
         MD  100
       &END EACH
     &END RESTART_HISTORY
   &END PRINT
 &END MOTION
 &FORCE_EVAL
   METHOD  QS
   &DFT
     BASIS_SET_FILE_NAME /users/gtocci/scratch_daint_3000/data_cp2k//BASIS_MOLOPT
     POTENTIAL_FILE_NAME /users/gtocci/scratch_daint_3000/data_cp2k//GTH_POTENTIALS
     WFN_RESTART_FILE_NAME ./GRAS-RESTART.wfn
     CHARGE  -1
     &SCF
       MAX_SCF  10
       EPS_SCF     9.9999999999999995E-07
       SCF_GUESS  RESTART
       &OT  T
         MINIMIZER  DIIS
         PRECONDITIONER  FULL_KINETIC
       &END OT
       &OUTER_SCF  T
         EPS_SCF     9.9999999999999995E-07
         MAX_SCF  30
       &END OUTER_SCF
       &PRINT
         &RESTART  SILENT
           ADD_LAST  NUMERIC
           &EACH
             QS_SCF  50
           &END EACH
         &END RESTART
       &END PRINT
     &END SCF
     &QS
       MAP_CONSISTENT  T
       EXTRAPOLATION  ASPC
       EXTRAPOLATION_ORDER  4
     &END QS
     &MGRID
       NGRIDS  5
       CUTOFF     4.6000000000000000E+02
     &END MGRID
     &XC
       DENSITY_CUTOFF     1.0000000000000000E-10
       GRADIENT_CUTOFF     1.0000000000000000E-10
       TAU_CUTOFF     1.0000000000000000E-10
       &XC_GRID
         XC_DERIV  SPLINE2_SMOOTH
       &END XC_GRID
       &XC_FUNCTIONAL  NO_SHORTCUT
         &LIBXC  T
           FUNCTIONAL XC_GGA_X_OPTB88_VDW
         &END LIBXC
         &VWN  T
         &END VWN
       &END XC_FUNCTIONAL
       &VDW_POTENTIAL
         POTENTIAL_TYPE  NON_LOCAL
         &NON_LOCAL
           TYPE  DRSLL
           VERBOSE_OUTPUT  T
           KERNEL_FILE_NAME /users/gtocci/scratch_daint_3000/data_cp2k//vdW_kernel_table.dat
         &END NON_LOCAL
       &END VDW_POTENTIAL
     &END XC
     &REAL_TIME_PROPAGATION
       INITIAL_WFN  SCF_WFN
     &END REAL_TIME_PROPAGATION
     &PRINT
       &MULLIKEN  SILENT
         FILENAME =GRAS.mulliken
       &END MULLIKEN
     &END PRINT
   &END DFT
   &SUBSYS
     &CELL
       A     2.5632000000000001E+01    0.0000000000000000E+00    0.0000000000000000E+00
       B     0.0000000000000000E+00    2.4664400000000022E+01    0.0000000000000000E+00
       C     0.0000000000000000E+00    0.0000000000000000E+00    5.0000000000000028E+01
       MULTIPLE_UNIT_CELL  1 1 1
     &END CELL
     &COORD
C    9.3088531475875715E+00    1.4785987137126041E+01    7.7165162440106494E+00
C    1.0738161654075199E+01    1.4814776389811048E+01    7.7426590164701956E+00
C    1.1411461212584689E+01    1.6059553177230274E+01    7.6454875230884998E+00
C    1.2847798080683352E+01    1.6031868989156852E+01    7.5651717542233321E+00
C    9.3272279861130691E+00    1.7239676575317826E+01    7.6355169101457481E+00
C    1.0720756728099682E+01    1.7282919253454551E+01    7.6426437806433869E+00
C    1.1415927137007438E+01    1.8511815248608414E+01    7.6353989976636605E+00
C    1.2842146491581257E+01    1.8534867814870584E+01    7.4691102993749778E+00
C    9.2929971112984653E+00    1.9710396155369857E+01    7.7810278081215607E+00
C    1.0733976946028811E+01    1.9747308840947177E+01    7.6664377649637050E+00
C    1.1459211560022705E+01    2.0976505258728249E+01    7.6999362731865784E+00
C    1.2901694503600693E+01    2.1015905300061966E+01    7.5967069063359576E+00
C    9.3601888166485097E+00    2.2167445330591374E+01    7.8875643069390726E+00
C    1.0763453192083011E+01    2.2217183545552956E+01    7.7866227483452759E+00
C    1.1490470493782043E+01    2.3425811447420042E+01    7.8538070387548293E+00
C    1.2898681637066433E+01    2.3445746541592790E+01    7.7082704892862841E+00
C    9.3675419423168975E+00    2.4608940789525288E+01    7.7693137143759792E+00
C    1.0789758034268615E+01    2.4666007411434546E+01    7.8816522281201635E+00
C    1.1425435543887923E+01    1.3579524712693340E+01    7.7418127655111588E+00
C    1.2885280793182007E+01    1.3580684427610043E+01    7.7179149940271961E+00
C    1.3584177263061298E+01    1.4809247716973660E+01    7.7000664942416348E+00
C    1.5004088832193439E+01    1.4778234499320508E+01    7.5272427655284115E+00
C    1.5722068264559665E+01    1.6049128365478879E+01    7.3216941914731839E+00
C    1.7150220813176446E+01    1.6009697832528303E+01    7.1964116660189230E+00
C    1.3540795793279209E+01    1.7284373117917866E+01    7.3581052464162955E+00
C    1.4985928240516239E+01    1.7295016143670072E+01    7.3160487074334712E+00
C    1.5696305577125694E+01    1.8534304162593322E+01    7.1736971662943168E+00
C    1.7127771854348516E+01    1.8522500298626284E+01    7.1141463560010640E+00
C    1.3602539647003237E+01    1.9791115371634294E+01    7.3896085622052015E+00
C    1.5019742572068768E+01    1.9778828951706735E+01    7.2364291579251505E+00
C    1.5745747091041054E+01    2.0974239461914497E+01    7.3328700132976516E+00
C    1.7143746471060190E+01    2.0994599448346332E+01    7.1566716421603092E+00
C    1.3633261281933262E+01    2.2244695107863052E+01    7.5961107435139370E+00
C    1.5045151921103447E+01    2.2228554414826075E+01    7.3735332082019660E+00
C    1.5777673598189091E+01    2.3433141609912788E+01    7.3246752772387946E+00
C    1.7207124694524037E+01    2.3451570631426417E+01    7.0647574148709005E+00
C    1.3687767112323103E+01    2.4650927968478779E+01    7.6770144171669177E+00
C    1.5109520850229467E+01    2.4626486066306590E+01    7.5205632131278151E+00
C    1.5736081804383511E+01    1.3551751793928570E+01    7.5164669799863324E+00
C    1.7132553766342465E+01    1.3528931002755872E+01    7.2597498612651901E+00
C    1.7824686225497697E+01    1.4760020130580939E+01    7.1994918869867091E+00
C    1.9260901997130720E+01    1.4795206627758821E+01    7.0902377310858729E+00
C    1.9989980890001853E+01    1.5985712469389883E+01    7.1414026600921314E+00
C    2.1440311930555676E+01    1.5960840224782434E+01    7.1172404712603123E+00
C    1.7860821409748656E+01    1.7250622359518470E+01    7.1084502646043379E+00
C    1.9274397422124757E+01    1.7268994493445714E+01    7.1451184446455906E+00
C    2.0008456998823750E+01    1.8504930582170953E+01    7.1478945757772303E+00
C    2.1457179000305892E+01    1.8442442190496003E+01    7.1688965884388658E+00
C    1.7859874346947347E+01    1.9758834217117489E+01    7.0833718533849170E+00
C    1.9314709225882432E+01    1.9728468373862281E+01    7.0790942549457547E+00
C    2.0045277226789658E+01    2.0965710653589237E+01    7.1051162444555285E+00
C    2.1477241012805585E+01    2.0932180756742799E+01    7.0326342129716899E+00
C    1.7860908959359278E+01    2.2201584598631207E+01    7.0280268215735111E+00
C    1.9295951736434183E+01    2.2185051233529713E+01    6.9974292946776142E+00
C    2.0023022532782782E+01    2.3438605451345349E+01    6.9807589472058220E+00
C    2.1465626285814515E+01    2.3392710326600881E+01    6.9759858907559087E+00
C    1.7924412977158411E+01    2.4671245514024832E+01    7.0490228867936917E+00
C    1.9351082822447051E+01    2.4723735811036420E+01    6.9004723047464926E+00
C    1.9978638778686250E+01    1.3531887425966328E+01    7.0537087021273974E+00
C    2.1405738721785482E+01    1.3562906954419825E+01    7.1582904772499516E+00
C    9.3811570963818163E+00    2.7094856291589789E+01    7.6228896312844361E+00
C    1.0806421457126541E+01    2.7086508964706070E+01    7.7469752922388784E+00
C    1.1536607748635173E+01    2.8314276407158655E+01    7.6623420146164580E+00
C    1.2940905425530882E+01    2.8339440784446666E+01    7.7175563159794738E+00
C    9.3379565648961780E+00    2.9540236315762655E+01    7.4733212120480852E+00
C    1.0808351833605752E+01    2.9565068761543198E+01    7.5017652559096577E+00
C    1.1491108662967523E+01    3.0802444871919128E+01    7.5193242375852751E+00
C    1.2905574077122523E+01    3.0839708941411271E+01    7.6404644586337866E+00
C    9.3469761962040661E+00    3.2034263326702217E+01    7.4521887724746714E+00
C    1.0741159889708229E+01    3.2012445667837817E+01    7.4701899843188819E+00
C    1.1448161283557873E+01    3.3248672370672729E+01    7.5360538107118540E+00
C    1.2867987610521903E+01    3.3276759560560869E+01    7.5666425190670585E+00
C    9.3417664620401606E+00    3.4532311149001124E+01    7.4665353323859582E+00
C    1.0766383753598777E+01    3.4530711148175961E+01    7.4656079988901398E+00
C    1.1451242424704009E+01    3.5759139085128893E+01    7.4801986122603283E+00
C    1.2891216151116303E+01    3.5763341592325901E+01    7.5396423557000123E+00
C    9.3230298391009097E+00    3.6981287346927601E+01    7.7040973516088078E+00
C    1.0738401753659105E+01    3.6978299395458308E+01    7.6837265484023813E+00
C    1.1550232979579539E+01    2.5917189465547658E+01    7.8887552322834020E+00
C    1.3018682719441239E+01    2.5894138135892057E+01    7.7765788326140042E+00
C    1.3695947828280389E+01    2.7103238950351251E+01    7.7846795631012364E+00
C    1.5113068850709233E+01    2.7114356807203528E+01    7.6096048821361277E+00
C    1.5788920671966292E+01    2.8338313999397268E+01    7.3851937990991505E+00
C    1.7186228250403605E+01    2.8335773499520521E+01    7.1132393251403583E+00
C    1.3623082372606337E+01    2.9601795950669196E+01    7.5702398385543503E+00
C    1.5077157831986653E+01    2.9577272783774688E+01    7.4611670899180709E+00
C    1.5734575756486349E+01    3.0815272193930742E+01    7.2621695243402318E+00
C    1.7174433744115799E+01    3.0808531062201304E+01    7.0523684052998092E+00
C    1.3595600520335562E+01    3.2078847449837248E+01    7.5782079926520343E+00
C    1.5038203147050597E+01    3.2034712059761944E+01    7.3727289063437222E+00
C    1.5718275549614862E+01    3.3235698072451669E+01    7.3667321354287374E+00
C    1.7121524971375688E+01    3.3271600249728081E+01    7.1911539503254209E+00
C    1.3598792263176820E+01    3.4534722573757811E+01    7.5223637967023222E+00
C    1.5012628212143509E+01    3.4469987014335928E+01    7.4528193236824194E+00
C    1.5718066305280731E+01    3.5711006413985494E+01    7.4475694986108678E+00
C    1.7094850729449895E+01    3.5723760051153114E+01    7.2363080996279239E+00
C    1.3599566755729226E+01    3.7015184277314773E+01    7.6109741553382397E+00
C    1.5022461795138851E+01    3.6956480151601824E+01    7.5702441401887119E+00
C    1.5839049572880073E+01    2.5892121423399757E+01    7.4196892994883132E+00
C    1.7223253526477009E+01    2.5899530840105498E+01    7.1983514797210519E+00
C    1.7912653519239242E+01    2.7113356295771851E+01    7.0213938782819252E+00
C    1.9335093475465492E+01    2.7155676141912288E+01    7.0349355593151488E+00
C    2.0087187792409694E+01    2.8372799243128338E+01    7.0678143352688627E+00
C    2.1482383134281832E+01    2.8347358655333839E+01    7.0842009405450250E+00
C    1.7909182539759648E+01    2.9548867765912878E+01    7.0188195605999475E+00
C    1.9328223520426842E+01    2.9594794135012975E+01    6.9577635592817897E+00
C    2.0002399702015314E+01    3.0850902499209262E+01    6.9210890255043314E+00
C    2.1440483313467876E+01    3.0810506406098330E+01    6.9517032362252600E+00
C    1.7852330044645118E+01    3.2046356884852415E+01    7.0402217390867108E+00
C    1.9281652651155984E+01    3.2113348871949235E+01    6.9089433080573865E+00
C    1.9971332003851384E+01    3.3337783379635198E+01    7.0221080779635372E+00
C    2.1401559922879450E+01    3.3283120350262976E+01    7.0335562848061182E+00
C    1.7824876272512618E+01    3.4517555372754572E+01    7.2029680654485766E+00
C    1.9257365277254674E+01    3.4534506789866867E+01    7.1374424312590792E+00
C    1.9989004578517072E+01    3.5724392648616778E+01    7.2099006038086184E+00
C    2.1406165581015731E+01    3.5736468623637997E+01    7.1616504321775913E+00
C    1.7829275897057119E+01    3.6968093561077929E+01    7.1459869346524094E+00
C    1.9263051192885271E+01    3.6957113169601762E+01    7.0834375494319950E+00
C    2.0093069649772083E+01    2.5952189080031246E+01    7.0204244218517502E+00
C    2.1512535973271103E+01    2.5882385599947664E+01    7.0289191967134359E+00
C    2.2153545117587729E+01    1.4731045831228458E+01    7.1427255922602786E+00
C    2.3563831097220614E+01    1.4710685256619737E+01    7.2879086582816557E+00
C    2.4257668972933729E+01    1.5996005871366473E+01    7.2856403065568616E+00
C    2.5692175308329379E+01    1.5997487437541647E+01    7.3183560232206064E+00
C    2.2183115278279558E+01    1.7210072470789385E+01    7.2191745351760543E+00
C    2.3545540739383544E+01    1.7209069928586498E+01    7.2427200092216371E+00
C    2.4231847715082552E+01    1.8447054683720172E+01    7.2958940623600883E+00
C    2.5674653305036905E+01    1.8457218053549148E+01    7.3904563314418876E+00
C    2.2158922178793652E+01    1.9693081064570077E+01    7.1633767774600408E+00
C    2.3557910142411387E+01    1.9664068963548647E+01    7.2684052256486602E+00
C    2.4267347003884222E+01    2.0869092706867534E+01    7.1776647485664515E+00
C    2.5734785004217361E+01    2.0881269216911249E+01    7.2793340092059617E+00
C    2.2151705152786040E+01    2.2176901748994290E+01    6.9736220242225286E+00
C    2.3624929842346145E+01    2.2135658263778385E+01    7.0755346108439703E+00
C    2.4278920604534960E+01    2.3378098149984311E+01    7.1505806820886377E+00
C    2.5707020334548929E+01    2.3369200241397444E+01    7.2990483000772164E+00
C    2.2190023245381088E+01    2.4645978530014727E+01    7.0559850436029041E+00
C    2.3585278885329323E+01    2.4641126635876532E+01    7.1232115181426892E+00
C    2.4241818731635348E+01    1.3536214234586339E+01    7.4460480428645175E+00
C    2.5676087290914651E+01    1.3544577463051597E+01    7.5750605730297824E+00
C    2.6394480522390523E+01    1.4762923643808614E+01    7.5400723173377822E+00
C    2.7815393984024514E+01    1.4782581890302357E+01    7.5132438519002598E+00
C    2.8519069413876188E+01    1.6001540982581307E+01    7.4206555275664341E+00
C    2.9947800817408528E+01    1.6032112424942863E+01    7.5059726958863386E+00
C    2.6395740346260098E+01    1.7235727231911788E+01    7.3598034189000705E+00
C    2.7787383875348585E+01    1.7210946259358543E+01    7.4100124941804291E+00
C    2.8522858857287442E+01    1.8461789117290948E+01    7.4169172779908825E+00
C    2.9972093457502428E+01    1.8462539383774089E+01    7.4936449073962175E+00
C    2.6403530813645890E+01    1.9695182626552207E+01    7.2908334516696103E+00
C    2.7831861515907562E+01    1.9701576790885834E+01    7.4001796822652013E+00
C    2.8557119376436166E+01    2.0913040908424367E+01    7.5012015186729659E+00
C    2.9956190381348545E+01    2.0949843804741779E+01    7.5159634427613913E+00
C    2.6405877222396192E+01    2.2155606879898492E+01    7.3477144000008066E+00
C    2.7856296596386912E+01    2.2158807144457835E+01    7.4578641955474501E+00
C    2.8569516637703426E+01    2.3400790397876850E+01    7.4825285827353083E+00
C    3.0030317125089873E+01    2.3424453038357168E+01    7.5559907779288453E+00
C    2.6425684677480223E+01    2.4642354035900180E+01    7.2666251100862933E+00
C    2.7860215587951497E+01    2.4632046646259674E+01    7.3627764768818329E+00
C    2.8530788457096246E+01    1.3560763640609954E+01    7.4999621341571583E+00
C    2.9957554184898040E+01    1.3576945619824064E+01    7.4448148481873506E+00
C    3.0622404252949554E+01    1.4783855218085220E+01    7.5160187139304053E+00
C    3.2024071054273278E+01    1.4800838066085646E+01    7.6223371879594444E+00
C    3.2793380837654404E+01    1.6036670672219145E+01    7.5824763457683488E+00
C    3.4231585490023292E+01    1.6014776509796800E+01    7.6277104859745766E+00
C    3.0675856167513430E+01    1.7235609141646176E+01    7.5216113446993047E+00
C    3.2100350029427240E+01    1.7234349660779426E+01    7.5229557047359430E+00
C    3.2796452757171501E+01    1.8457152439854848E+01    7.5977846236495816E+00
C    3.4206557401887238E+01    1.8487259084005942E+01    7.6396221375033102E+00
C    3.0655653197740200E+01    1.9690627056731085E+01    7.5346509131264723E+00
C    3.2097044706810095E+01    1.9704561941369665E+01    7.6102783660832136E+00
C    3.2836823791519087E+01    2.0943563518176227E+01    7.6760733255391314E+00
C    3.4274589598214483E+01    2.0916783070259385E+01    7.8109107229791457E+00
C    3.0711639072351495E+01    2.2175764103832723E+01    7.6132223124453402E+00
C    3.2133151020446668E+01    2.2179227711256654E+01    7.7067472008414661E+00
C    3.2844485197858567E+01    2.3402661166764918E+01    7.7334568191803461E+00
C    3.4280327853700967E+01    2.3401266798972149E+01    7.8954427983681246E+00
C    3.0743318818140754E+01    2.4630968322238129E+01    7.4827267524831749E+00
C    3.2165167185712804E+01    2.4627560269879840E+01    7.6163033097352084E+00
C    3.2808998734267867E+01    1.3575398081708935E+01    7.6880828607239184E+00
C    3.4235719462625624E+01    1.3532754267183032E+01    7.7765978912299181E+00
C    2.2203128528979498E+01    2.7088708001649600E+01    7.0914885284174840E+00
C    2.3641910573133543E+01    2.7118248467140301E+01    7.1468020540263568E+00
C    2.4334504658163304E+01    2.8394598873323762E+01    7.1289346397779516E+00
C    2.5745808469587207E+01    2.8335953441467282E+01    7.1830221047877885E+00
C    2.2179703674102580E+01    2.9575302199347675E+01    6.9846453901108312E+00
C    2.3620476758102964E+01    2.9621178659507585E+01    7.0397032835292181E+00
C    2.4298510003945946E+01    3.0839830815724213E+01    7.0716513117864466E+00
C    2.5719779833686808E+01    3.0824451704688634E+01    7.1052551423514414E+00
C    2.2147271008983857E+01    3.2058407968085994E+01    6.9974745256473305E+00
C    2.3555637686127138E+01    3.2064222689826956E+01    7.0952508176695011E+00
C    2.4264936951281612E+01    3.3267644580282422E+01    7.2248142434223679E+00
C    2.5686395254937850E+01    3.3237349863667056E+01    7.2496166031059373E+00
C    2.2135333365339850E+01    3.4508740810210895E+01    7.1497042448572881E+00
C    2.3561705305349037E+01    3.4492396799857794E+01    7.2422096576250823E+00
C    2.4295414614761221E+01    3.5731529051333055E+01    7.4192355696217156E+00
C    2.5697313970939863E+01    3.5717751254718586E+01    7.5409857358120442E+00
C    2.2121166279800011E+01    3.6956622597351654E+01    7.1739427683281445E+00
C    2.3544602572494171E+01    3.6949941863109920E+01    7.3866132319987079E+00
C    2.4311207906048509E+01    2.5889077269285981E+01    7.1875127796213585E+00
C    2.5726742238658755E+01    2.5867459426696801E+01    7.2485597894281053E+00
C    2.6462194611229471E+01    2.7076110476118448E+01    7.1952695601053032E+00
C    2.7907868922276151E+01    2.7084480814478880E+01    7.2549927286306390E+00
C    2.8610852513487991E+01    2.8322712731680031E+01    7.3353199716497590E+00
C    3.0041086507142900E+01    2.8315794465307665E+01    7.2846175319937787E+00
C    2.6456213957063770E+01    2.9574182324528959E+01    7.1948524205854083E+00
C    2.7879447530459611E+01    2.9546190126857017E+01    7.3185369168093697E+00
C    2.8585674806589328E+01    3.0790426565384276E+01    7.3983314904074122E+00
C    3.0024894887301102E+01    3.0824607263220702E+01    7.4469006269588274E+00
C    2.6445421501017627E+01    3.2036820060406505E+01    7.1762896186959484E+00
C    2.7886000555430961E+01    3.1995182587443544E+01    7.3451267352299583E+00
C    2.8581824576921893E+01    3.3262478190293251E+01    7.4339302335438289E+00
C    3.0061636682979582E+01    3.3272775319757052E+01    7.4615219282936538E+00
C    2.6403770421186564E+01    3.4462524338311837E+01    7.3760812885256328E+00
C    2.7863807258293036E+01    3.4484812084503147E+01    7.4864204380362587E+00
C    2.8594100253389094E+01    3.5760411969987878E+01    7.4821346835960458E+00
C    3.0022069218265347E+01    3.5753896314335691E+01    7.5018949178342265E+00
C    2.6406456912480671E+01    3.6971429565852368E+01    7.5799609189492374E+00
C    2.7835479941242152E+01    3.6988530784824562E+01    7.5636446058571822E+00
C    2.8595512363260028E+01    2.5852939868537057E+01    7.2456052857958584E+00
C    3.0050988521525579E+01    2.5845608721249647E+01    7.3100469391370186E+00
C    3.0763890016493495E+01    2.7104039544141838E+01    7.2851302105589815E+00
C    3.2177830684223331E+01    2.7102576015427516E+01    7.3490301881524873E+00
C    3.2888278112407974E+01    2.8320449654796477E+01    7.3376827412269217E+00
C    3.4296070927382864E+01    2.8316522853660828E+01    7.4856504209877430E+00
C    3.0711181846933059E+01    2.9545213571770432E+01    7.2795171476597123E+00
C    3.2168615015224461E+01    2.9577100425404129E+01    7.3309443241256798E+00
C    3.2859738509134083E+01    3.0795352290698119E+01    7.4694026510711771E+00
C    3.4265892482623194E+01    3.0792966381653791E+01    7.5079783266320090E+00
C    3.0755216940266717E+01    3.2060029236203974E+01    7.4752376680434356E+00
C    3.2174421064345161E+01    3.2038077341072281E+01    7.4839861431584884E+00
C    3.2869625886491271E+01    3.3266613498772273E+01    7.3875118652349601E+00
C    3.4263370560670559E+01    3.3276110393993811E+01    7.3768778516845384E+00
C    3.0755816831822653E+01    3.4521484046231883E+01    7.4393169969128383E+00
C    3.2148405280878421E+01    3.4502580250852915E+01    7.4104109392636497E+00
C    3.2815648867152667E+01    3.5782309236864535E+01    7.5690104384886991E+00
C    3.4251377487056786E+01    3.5776408540792545E+01    7.5517689245318618E+00
C    3.0662718528761136E+01    3.7001628969131829E+01    7.5141269956977776E+00
C    3.2100436931209586E+01    3.7031735640431918E+01    7.6227675425691794E+00
C    3.2914301372233339E+01    2.5892630585088387E+01    7.5055584734106038E+00
C    3.4329128760321716E+01    2.5847327810645382E+01    7.6336805865381718E+00
O    2.6843772619736575E+02    2.0535083571617656E+02    2.7195629172588312E+01
H    2.6778319539480196E+02    2.0462904834771163E+02    2.6958494144385192E+01
H    2.6930213670386803E+02    2.0489008438678746E+02    2.7357628827426645E+01
O    2.5557091974133766E+02    2.5227307223858000E+02    2.3766878736801676E+01
H    2.5509331527135151E+02    2.5205258592879159E+02    2.2829521649099426E+01
H    2.5486816085392076E+02    2.5205631000536741E+02    2.4417211486717264E+01
O    1.5837415922203473E+02    2.7206967361762162E+02    2.1983544576153228E+01
H    1.5858272442248256E+02    2.7233182289452020E+02    2.2934719203754089E+01
H    1.5745106794857770E+02    2.7173725501189585E+02    2.2021963357441848E+01
O    3.2542935059491225E+02    1.6868852644993487E+02    1.0333635761580847E+01
H    3.2567727915611181E+02    1.6809229318928126E+02    1.1130421941231951E+01
H    3.2448623452308743E+02    1.6880735590268293E+02    1.0318876356880557E+01
O    1.8970726646407257E+02    2.1590248874666722E+02    2.2558605690858347E+01
H    1.8919469329683250E+02    2.1576072183229860E+02    2.1725743797201769E+01
H    1.8909203915699180E+02    2.1543587017569959E+02    2.3283640144588833E+01
O    2.5072503646070848E+02    1.6302103182606680E+02    1.4690513212738706E+01
H    2.5119525879518230E+02    1.6372517991200871E+02    1.5154365804838127E+01
H    2.4981848502041618E+02    1.6296885000241605E+02    1.5158045009307457E+01
O    2.1464211725451787E+02    1.8948708571313250E+02    1.8312040033196631E+01
H    2.1551807212988754E+02    1.8984817006498693E+02    1.8100361128107878E+01
H    2.1483807561763561E+02    1.8860689410587850E+02    1.7947778137686655E+01
O    2.6402717527557087E+02    1.1312889054445954E+02    1.9666147796959550E+01
H    2.6368400359565896E+02    1.1359510397560149E+02    2.0469721951392422E+01
H    2.6342416413565093E+02    1.1352068974598509E+02    1.8974518954001237E+01
O    1.3500611494434128E+02    3.1564092549874289E+02    1.9257437847179997E+01
H    1.3544608866217936E+02    3.1647288878628632E+02    1.9459030365030088E+01
H    1.3547580582733337E+02    3.1532183131388155E+02    1.8412064184468854E+01
O    3.5685921293954402E+02    2.6687193831103866E+02    2.5855085214399541E+01
H    3.5720519672822110E+02    2.6696290384058267E+02    2.4845198937229203E+01
H    3.5620880516745382E+02    2.6757144859762303E+02    2.5824855727097322E+01
O    2.2429295815876876E+02    2.5226645858387579E+02    2.2227248605119403E+01
H    2.2344894736939787E+02    2.5178422684562628E+02    2.1989753945862851E+01
H    2.2426752216436719E+02    2.5232849814131745E+02    2.3226733353819217E+01
O    1.6741414607370709E+02    2.3096360029084352E+02    1.1063906402210632E+01
H    1.6711280935022612E+02    2.3122606076897225E+02    1.1932705025185481E+01
H    1.6796549742064056E+02    2.3173042956895827E+02    1.0723445241971119E+01
O    2.2989034700079054E+02    1.2130894702601722E+02    1.6962648051571442E+01
H    2.2910488873126579E+02    1.2136059534539719E+02    1.7496274465362479E+01
H    2.3036334337548305E+02    1.2065460776114178E+02    1.7509011966132764E+01
O    2.4110231547754907E+02    1.2243416889766088E+02    1.0685737289811474E+01
H    2.4047488567158715E+02    1.2166280445251547E+02    1.0483345198924157E+01
H    2.4188821569823594E+02    1.2226563058616847E+02    1.0141666426755590E+01
O    2.0759675935838337E+02    3.6099136256180930E+02    1.4763505419321641E+01
H    2.0767970198527686E+02    3.6139833966364557E+02    1.5594271161857888E+01
H    2.0697469722532767E+02    3.6023473758115108E+02    1.4831672238133251E+01
O    2.1980706575421422E+02    2.8410984018119569E+02    1.8614481230509305E+01
H    2.1975369410961096E+02    2.8438094657540660E+02    1.7651930519619423E+01
H    2.1908987084267551E+02    2.8472528364739952E+02    1.9086206518867524E+01
O    2.6853674648581716E+02    3.0183872596559377E+02    1.7088228143862572E+01
H    2.6862479240396738E+02    3.0081353363805101E+02    1.6971140812042957E+01
H    2.6809550845335110E+02    3.0202033267548063E+02    1.7967181162726689E+01
O    2.4714269604204995E+02    2.0476963593366713E+02    1.2287755743964976E+01
H    2.4778281211942269E+02    2.0494536303178182E+02    1.3105663877083311E+01
H    2.4631618531510571E+02    2.0506003697156248E+02    1.2679914801942138E+01
O    2.0389590038363121E+02    1.7680183080736711E+02    1.3798359689597630E+01
H    2.0487784790038052E+02    1.7688539169643150E+02    1.3574889863219683E+01