 # Version information for this restart file 
 # current date 2020-04-18 07:14:42.108
 # current working dir /scratch/snx3000/gtocci/gtocci/MEMBRANES/AIMD_US_IONS_GRA/us_aimd_new/us_9
 # Program compiled at                              Fri Nov 22 15:19:42 CET 2019
 # Program compiled on                                                  daint102
 # Program compiled for                                   CRAY_XC50-gfortran_gpu
 # Source code revision number                                       git:a698b45
 &GLOBAL
   PRINT_LEVEL  LOW
   PROJECT_NAME GRAS
   RUN_TYPE  MD
   WALLTIME 86400
 &END GLOBAL
 &MOTION
   &MD
     ENSEMBLE  NVT
     STEPS  2000
     TIMESTEP     9.9999999999999989E-01
     STEP_START_VAL  76638
     TIME_START_VAL     7.6637999999935477E+04
     ECONS_START_VAL    -8.3019562683921267E+03
     TEMPERATURE     3.0000000000000000E+02
     TEMP_KIND  T
     &BAROSTAT
       PRESSURE     1.0000000000000000E+00
       TIMECON     9.9999999999999986E+01
       VIRIAL  Z
     &END BAROSTAT
     &THERMOSTAT
       TYPE  NOSE
       REGION  GLOBAL
       &NOSE
         LENGTH  4
         TIMECON     9.9999999999999986E+01
         MTS  2
         &COORD
               4.3808162715714676E-03    1.7211592808674459E+00   -1.2180564465620472E+01    3.6634037643870037E+01
         &END COORD
         &VELOCITY
               1.0738875309030084E-06    4.7047322739421544E-04    2.3988427165400885E-04    3.6807439558983582E-04
         &END VELOCITY
         &MASS
               7.0145132684705392E+07    1.6237299232570693E+04    1.6237299232570693E+04    1.6237299232570693E+04
         &END MASS
         &FORCE
              -1.6866658251757523E-09   -5.3528041116699962E-08    1.6283504384462408E-07   -9.6555006313075009E-10
         &END FORCE
       &END NOSE
     &END THERMOSTAT
     &AVERAGES  T
       &RESTART_AVERAGES
         ITIMES_START  1
         AVECPU     3.0824451919888336E+01
         AVEHUGONIOT     0.0000000000000000E+00
         AVETEMP_BARO     0.0000000000000000E+00
         AVEPOT    -8.3067090909185445E+03
         AVEKIN     2.0521953185369814E+00
         AVETEMP     3.0000263779585333E+02
         AVEKIN_QM     0.0000000000000000E+00
         AVETEMP_QM     0.0000000000000000E+00
         AVEVOL     2.1331414786626332E+05
         AVECELL_A     4.8437460238121709E+01
         AVECELL_B     4.6608961231948342E+01
         AVECELL_C     9.4486306644281314E+01
         AVEALPHA     9.0000000000000028E+01
         AVEBETA     9.0000000000000028E+01
         AVEGAMMA     9.0000000000000028E+01
         AVE_ECONS    -5.6173966258976770E+02
         AVE_PRESS     0.0000000000000000E+00
         AVE_PXX     0.0000000000000000E+00
       &END RESTART_AVERAGES
     &END AVERAGES
     &PRINT
       &TEMP_KIND  SILENT
       &END TEMP_KIND
     &END PRINT
   &END MD
   &FREE_ENERGY
     &METADYN
       MIN_DISP    -1.0000000000000000E+00
       OLD_HILL_NUMBER  0
       OLD_HILL_STEP  0
       DO_HILLS  F
       STEP_START_VAL  76638
       NHILLS_START_VAL  0
       &METAVAR
         SCALE     1.0000000000000000E+00
         COLVAR  1
       &END METAVAR
       &PRINT
         &COLVAR  SILENT
           COMMON_ITERATION_LEVELS  3
           &EACH
             MD  1
           &END EACH
         &END COLVAR
       &END PRINT
     &END METADYN
   &END FREE_ENERGY
   &CONSTRAINT
     &COLLECTIVE
       COLVAR  1
       INTERMOLECULAR  T
       &RESTRAINT
         K     4.4625385281452931E-04
       &END RESTRAINT
     &END COLLECTIVE
     &COLVAR_RESTART
           8.5037675979853944E+00
     &END COLVAR_RESTART
   &END CONSTRAINT
   &PRINT
     &TRAJECTORY  SILENT
       &EACH
         MD  1
       &END EACH
     &END TRAJECTORY
     &VELOCITIES  SILENT
       &EACH
         MD  1
       &END EACH
     &END VELOCITIES
     &FORCES  SILENT
       UNIT eV*angstrom^-1
       &EACH
         MD  1
       &END EACH
     &END FORCES
     &RESTART  SILENT
       &EACH
         MD  1
       &END EACH
     &END RESTART
     &RESTART_HISTORY  SILENT
       &EACH
         MD  100
       &END EACH
     &END RESTART_HISTORY
   &END PRINT
 &END MOTION
 &FORCE_EVAL
   METHOD  QS
   &DFT
     BASIS_SET_FILE_NAME /users/gtocci/scratch_daint_3000/data_cp2k//BASIS_MOLOPT
     POTENTIAL_FILE_NAME /users/gtocci/scratch_daint_3000/data_cp2k//GTH_POTENTIALS
     WFN_RESTART_FILE_NAME ./GRAS-RESTART.wfn
     CHARGE  -1
     &SCF
       MAX_SCF  10
       EPS_SCF     9.9999999999999995E-07
       SCF_GUESS  RESTART
       &OT  T
         MINIMIZER  DIIS
         PRECONDITIONER  FULL_KINETIC
       &END OT
       &OUTER_SCF  T
         EPS_SCF     9.9999999999999995E-07
         MAX_SCF  30
       &END OUTER_SCF
       &PRINT
         &RESTART  SILENT
           ADD_LAST  NUMERIC
           &EACH
             QS_SCF  50
           &END EACH
         &END RESTART
       &END PRINT
     &END SCF
     &QS
       MAP_CONSISTENT  T
       EXTRAPOLATION  ASPC
       EXTRAPOLATION_ORDER  4
     &END QS
     &MGRID
       NGRIDS  5
       CUTOFF     4.6000000000000000E+02
     &END MGRID
     &XC
       DENSITY_CUTOFF     1.0000000000000000E-10
       GRADIENT_CUTOFF     1.0000000000000000E-10
       TAU_CUTOFF     1.0000000000000000E-10
       &XC_GRID
         XC_DERIV  SPLINE2_SMOOTH
       &END XC_GRID
       &XC_FUNCTIONAL  NO_SHORTCUT
         &LIBXC  T
           FUNCTIONAL XC_GGA_X_OPTB88_VDW
         &END LIBXC
         &VWN  T
         &END VWN
       &END XC_FUNCTIONAL
       &VDW_POTENTIAL
         POTENTIAL_TYPE  NON_LOCAL
         &NON_LOCAL
           TYPE  DRSLL
           VERBOSE_OUTPUT  T
           KERNEL_FILE_NAME /users/gtocci/scratch_daint_3000/data_cp2k//vdW_kernel_table.dat
         &END NON_LOCAL
       &END VDW_POTENTIAL
     &END XC
     &REAL_TIME_PROPAGATION
       INITIAL_WFN  SCF_WFN
     &END REAL_TIME_PROPAGATION
     &PRINT
       &MULLIKEN  SILENT
         FILENAME =GRAS.mulliken
       &END MULLIKEN
     &END PRINT
   &END DFT
   &SUBSYS
     &CELL
       A     2.5632000000000001E+01    0.0000000000000000E+00    0.0000000000000000E+00
       B     0.0000000000000000E+00    2.4664400000000022E+01    0.0000000000000000E+00
       C     0.0000000000000000E+00    0.0000000000000000E+00    5.0000000000000028E+01
       MULTIPLE_UNIT_CELL  1 1 1
     &END CELL
     &COORD
C   -1.0618257885420023E+01   -1.4506310839099847E+01   -8.4733583342916159E+00
C   -9.1608986563293282E+00   -1.4472504645186834E+01   -8.4175008689203246E+00
C   -8.4625484545678979E+00   -1.3273489764594650E+01   -8.4428022870420332E+00
C   -7.0431335738809446E+00   -1.3262286469255843E+01   -8.5439467624847705E+00
C   -1.0600144702226846E+01   -1.2052084495266358E+01   -8.2181814415158314E+00
C   -9.1456623832542761E+00   -1.2037437511718258E+01   -8.3241921817238520E+00
C   -8.4301685197665712E+00   -1.0826242512790808E+01   -8.3179719174433338E+00
C   -6.9695185924086624E+00   -1.0808649797192587E+01   -8.3667004145820112E+00
C   -1.0588771699896693E+01   -9.6118871949695261E+00   -8.2215204955950885E+00
C   -9.1522678495255132E+00   -9.6262422896451945E+00   -8.1805791493157063E+00
C   -8.4165806299440646E+00   -8.3647933238102574E+00   -8.0209977513294124E+00
C   -6.9762775618364925E+00   -8.3383590429415371E+00   -8.1264409209294701E+00
C   -1.0558133575097195E+01   -7.1459924247357218E+00   -8.2056600433713616E+00
C   -9.1853694096256167E+00   -7.1355967246658185E+00   -8.0094123816870795E+00
C   -8.4931904426314979E+00   -5.8851468127922946E+00   -8.0479479643426401E+00
C   -7.0062461917132177E+00   -5.8543674840016848E+00   -7.9849951165653428E+00
C   -1.0589336208681024E+01   -4.6388355103843004E+00   -8.2494484380497148E+00
C   -9.1747954918464725E+00   -4.6208328278411077E+00   -8.1075297658511438E+00
C   -8.4802502479176436E+00   -1.5664175621692815E+01   -8.4951244717870438E+00
C   -7.0595758595563991E+00   -1.5726318485235236E+01   -8.4898488911147965E+00
C   -6.3663363369638830E+00   -1.4494422245199521E+01   -8.4859374996008459E+00
C   -4.9392629962895214E+00   -1.4508056514055733E+01   -8.5556805634484512E+00
C   -4.1849149659425873E+00   -1.3291528808093625E+01   -8.5335576972889946E+00
C   -2.6780377142272425E+00   -1.3279532974305598E+01   -8.4401094565568808E+00
C   -6.3190606765958064E+00   -1.2042868588524357E+01   -8.5141033093338514E+00
C   -4.8562231899378050E+00   -1.2048953007273667E+01   -8.4188276295203739E+00
C   -4.1143720984577570E+00   -1.0818620753617401E+01   -8.3378170767450914E+00
C   -2.7455535785032983E+00   -1.0783552909092423E+01   -8.2551927169584740E+00
C   -6.2991924144684166E+00   -9.5647447325383013E+00   -8.3533831749457015E+00
C   -4.8433955972147116E+00   -9.5381581918018394E+00   -8.3552460031102509E+00
C   -4.2211439312824233E+00   -8.3079664725694915E+00   -8.1525208849352033E+00
C   -2.7951583055013298E+00   -8.3265074467148992E+00   -8.1815359590544681E+00
C   -6.3046416569029295E+00   -7.0705828834761375E+00   -8.0559184254108001E+00
C   -4.8756944606897523E+00   -7.0583056717913504E+00   -8.0848340544862136E+00
C   -4.1957154877020351E+00   -5.8194708308795278E+00   -8.0624840540333764E+00
C   -2.7662810940438858E+00   -5.8393531025158341E+00   -8.1800581787297411E+00
C   -6.3217130337226060E+00   -4.5581183214970808E+00   -8.0090952956716013E+00
C   -4.8940217467788507E+00   -4.5973425696808086E+00   -8.0632536361439175E+00
C   -4.1781908923596243E+00   -1.5704095272996236E+01   -8.5013853840973077E+00
C   -2.7521774962058863E+00   -1.5713369607591602E+01   -8.4986723843379703E+00
C   -2.0425310212243883E+00   -1.4545190442409357E+01   -8.4529752500560722E+00
C   -6.4627888306645853E-01   -1.4519085385896140E+01   -8.4397660370864731E+00
C    7.1722953617684521E-02   -1.3259737831059629E+01   -8.3720893283396993E+00
C    1.5067561597481138E+00   -1.3301887475687947E+01   -8.2006441357363737E+00
C   -2.0336747885719779E+00   -1.1987518447318234E+01   -8.3587136118076515E+00
C   -6.0593235318734495E-01   -1.1992587721385059E+01   -8.2476454077089958E+00
C    9.2402352933286760E-02   -1.0772631787613516E+01   -8.1321576750687878E+00
C    1.5081843197899174E+00   -1.0828098538945751E+01   -8.1307435326899427E+00
C   -2.0747712954294610E+00   -9.5376680114414274E+00   -8.2145631157424166E+00
C   -6.5267288041518579E-01   -9.5688352270401200E+00   -8.0999349327559322E+00
C    4.4055970766189383E-02   -8.2678818530692872E+00   -8.1534614019073182E+00
C    1.5034757006777668E+00   -8.3219906830466410E+00   -8.0858117451451470E+00
C   -2.1254293137422846E+00   -7.0862606418029399E+00   -8.1756280930691094E+00
C   -6.7433621487691764E-01   -7.0347593666527688E+00   -8.1506004019166767E+00
C    9.4122916604746948E-02   -5.8340197537557872E+00   -8.1173877214561685E+00
C    1.5176019478868401E+00   -5.8639895831777018E+00   -7.9584587141256344E+00
C   -2.0338973897313815E+00   -4.6436708380172202E+00   -8.1672183173079826E+00
C   -5.7770401023709217E-01   -4.6133731474374038E+00   -8.0565187546640171E+00
C    7.7020989068814175E-02   -1.5733160789669142E+01   -8.3872819423244245E+00
C    1.5054039589943740E+00   -1.5733194408840799E+01   -8.1621333187957585E+00
C   -1.0568485679931882E+01   -2.1769820748079862E+00   -8.3606722850278832E+00
C   -9.1979352432794048E+00   -2.1344795487246446E+00   -8.2500765598692194E+00
C   -8.4737408038245405E+00   -9.0039053351643894E-01   -8.3281449942799686E+00
C   -7.0831759309575082E+00   -8.8766275916707849E-01   -8.1155337140909136E+00
C   -1.0601367914970455E+01    3.2644164683613247E-01   -8.4586729271725449E+00
C   -9.1612983004742841E+00    3.1465992029369644E-01   -8.3935695605468297E+00
C   -8.4805079557931791E+00    1.5534562547255544E+00   -8.2818021613593658E+00
C   -7.0435397685567755E+00    1.5449291509541323E+00   -8.1734172236464602E+00
C   -1.0593789701701541E+01    2.7864773305800346E+00   -8.3806549887092494E+00
C   -9.1462013218728462E+00    2.7821471527098054E+00   -8.3190944099076720E+00
C   -8.4317805392476171E+00    3.9967361624031619E+00   -8.2835590130764114E+00
C   -7.0128545150921706E+00    3.9984692373687767E+00   -8.2216960326824040E+00
C   -1.0599043724386386E+01    5.2535206218721147E+00   -8.3603467359551757E+00
C   -9.1962839245988963E+00    5.2123820274481956E+00   -8.3419746836155237E+00
C   -8.4577880220013242E+00    6.4201018714074189E+00   -8.3067441271798881E+00
C   -7.0453775326360688E+00    6.4761205612482566E+00   -8.4098199610911557E+00
C   -1.0575528787613500E+01    7.6739532085668554E+00   -8.5611791760500466E+00
C   -9.1595327907872743E+00    7.6786121351186649E+00   -8.4945855391513039E+00
C   -8.4522049648943902E+00   -3.3753871355416916E+00   -8.1268493616545587E+00
C   -7.0204661787955951E+00   -3.3395853072920807E+00   -8.0100775650758678E+00
C   -6.3374492356046197E+00   -2.0853652010556787E+00   -8.0386515949511441E+00
C   -4.9142259094778789E+00   -2.1147061115155252E+00   -8.0923087597223606E+00
C   -4.1478849245541953E+00   -8.8517456135285433E-01   -8.0223524086741058E+00
C   -2.7324091457818995E+00   -9.2571522511432203E-01   -7.9849237737199656E+00
C   -6.2880967309866111E+00    3.0560065769705197E-01   -8.1132157750703318E+00
C   -4.8866746527072999E+00    2.5734180540616236E-01   -8.1132709070315503E+00
C   -4.2227314924708912E+00    1.5539941422466033E+00   -8.0642968704682048E+00
C   -2.7838465352754960E+00    1.5078150490098772E+00   -8.0422412256065652E+00
C   -6.3565032198533293E+00    2.7743368340275589E+00   -8.1249235956815564E+00
C   -4.9055930224363857E+00    2.7640382630289642E+00   -8.1536759577376348E+00
C   -4.1554047091305799E+00    4.0185123162681764E+00   -8.2701886874904815E+00
C   -2.7631276592127847E+00    3.9763443671250718E+00   -8.2416507018741623E+00
C   -6.2947116016901719E+00    5.2218825239755375E+00   -8.2704853482969920E+00
C   -4.8469562502494945E+00    5.2561783456431908E+00   -8.2849928494406679E+00
C   -4.1855027249403589E+00    6.4977241481328267E+00   -8.2341037927452039E+00
C   -2.7774450846375158E+00    6.4654626581769143E+00   -8.3623132156888662E+00
C   -6.3300612005350922E+00    7.7018469467408908E+00   -8.4862099300511638E+00
C   -4.8827340812487927E+00    7.7553532669953302E+00   -8.4136254563743638E+00
C   -4.1893354073544877E+00   -3.3464488021033127E+00   -8.0793609148274736E+00
C   -2.8009714120039479E+00   -3.3739121787713016E+00   -8.1081061636582739E+00
C   -2.0509656899252149E+00   -2.1545698175894494E+00   -8.0617599611302797E+00
C   -6.2147932522095672E-01   -2.1685601923573254E+00   -8.0322774950595193E+00
C    9.1637405129591787E-02   -9.4622253451163751E-01   -8.0300341736337923E+00
C    1.4933874088567274E+00   -1.0020856933000992E+00   -8.0127382272197138E+00
C   -2.0847816906852366E+00    2.8504555082170613E-01   -8.0418142756977460E+00
C   -6.1372909043005419E-01    3.4208347051092691E-01   -8.0390711914247763E+00
C    6.5472293020151298E-02    1.5859388068638360E+00   -8.1332235504123620E+00
C    1.5044651731137282E+00    1.5350512048995557E+00   -8.1793540705024643E+00
C   -2.0865747430023314E+00    2.7649472873501479E+00   -8.0474658552280900E+00
C   -6.7123097444928537E-01    2.8338887662317345E+00   -8.0529415422251915E+00
C    6.8569834931396720E-02    4.0206684289218906E+00   -8.0512670137217519E+00
C    1.5215110478005687E+00    3.9634428051610122E+00   -8.1113884342025599E+00
C   -2.0746730774155213E+00    5.2072861443682950E+00   -8.3044280928656509E+00
C   -5.8202869030114701E-01    5.2621095216316105E+00   -8.1503917990133044E+00
C    1.1666806667696478E-01    6.4912073063976052E+00   -8.1031056790517066E+00
C    1.5287162182195047E+00    6.4722835457483425E+00   -8.0796830598936609E+00
C   -2.0728133548678573E+00    7.7054419798576266E+00   -8.3420776829783723E+00
C   -6.5001623137634512E-01    7.7405234178049973E+00   -8.3137040927722410E+00
C    8.6212474826984020E-02   -3.3826783041219803E+00   -8.0128959681923799E+00
C    1.5189887014556855E+00   -3.4099033785962805E+00   -7.9168639692338090E+00
C    2.2063500945337151E+00   -1.4524954695678479E+01   -8.1045377480717793E+00
C    3.6003144908957658E+00   -1.4507923234194783E+01   -8.0860715333410305E+00
C    4.3078402987747380E+00   -1.3277364568997015E+01   -8.0075346803882539E+00
C    5.7265886111970081E+00   -1.3255144176552099E+01   -8.0021499546495392E+00
C    2.1907754997764286E+00   -1.2055633417360667E+01   -8.1841335160759918E+00
C    3.5956727321390547E+00   -1.2017436718692840E+01   -8.0374171286129634E+00
C    4.3193576034279060E+00   -1.0751107953524405E+01   -8.1844245430886780E+00
C    5.7597400043175764E+00   -1.0761869775426025E+01   -8.2648850406752192E+00
C    2.1483603609567674E+00   -9.5668389765310700E+00   -8.0967577718011565E+00
C    3.5866313092478359E+00   -9.5329086148765718E+00   -8.1473991847353098E+00
C    4.3199857514669402E+00   -8.3175862631928439E+00   -8.2215527163828312E+00
C    5.7928230388375432E+00   -8.3555895636769169E+00   -8.3239656601492644E+00
C    2.2409466147528678E+00   -7.0683273443471997E+00   -8.0477771678800476E+00
C    3.6711682714986291E+00   -7.0507299200043514E+00   -8.1268547300496188E+00
C    4.3666731712898041E+00   -5.8598493466044834E+00   -8.0731877514174712E+00
C    5.8598212442550404E+00   -5.9001205168241544E+00   -8.2695693282909417E+00
C    2.2685726053823827E+00   -4.6536004973664369E+00   -7.8952837491132257E+00
C    3.6600574951798377E+00   -4.6744277012258522E+00   -7.8848065069224900E+00
C    4.3408020945941272E+00   -1.5761942638662648E+01   -8.1084172909530761E+00
C    5.7793586606309484E+00   -1.5719343702587331E+01   -8.0905089508891272E+00
C    6.4712443833426487E+00   -1.4491336200020033E+01   -8.0488001054647587E+00
C    7.9024847582227293E+00   -1.4524455913720164E+01   -8.1447378126758547E+00
C    8.6034645240415912E+00   -1.3277647594479452E+01   -8.1579263421812769E+00
C    1.0063570941283960E+01   -1.3295157085036726E+01   -8.2474900627563272E+00
C    6.4685857599181089E+00   -1.2027946739446511E+01   -8.1030246232278706E+00
C    7.8815381155893798E+00   -1.2045584805585561E+01   -8.2034329885673873E+00
C    8.6197491987716539E+00   -1.0834607803936061E+01   -8.3111981339121392E+00
C    1.0036089454886870E+01   -1.0845710849304579E+01   -8.1826669089860502E+00
C    6.5115835622384894E+00   -9.5858346729234771E+00   -8.2525954825668073E+00
C    7.9237185210180536E+00   -9.5815639385895643E+00   -8.3627039212627245E+00
C    8.6182439180675185E+00   -8.3522776195311774E+00   -8.2595883277681725E+00
C    1.0038222972646270E+01   -8.3694658041916039E+00   -8.2369996896851720E+00
C    6.5455619395150846E+00   -7.1179406791943318E+00   -8.3383269575038650E+00
C    7.9538967268634648E+00   -7.0845895307750233E+00   -8.3670167778394369E+00
C    8.6666141035031146E+00   -5.8631114349297935E+00   -8.3350122426442823E+00
C    1.0106179106911906E+01   -5.8465144717911901E+00   -8.2796744233090855E+00
C    6.5211865527677775E+00   -4.6239190364638105E+00   -8.2543996735725838E+00
C    7.9362596637233302E+00   -4.6446420382616420E+00   -8.3444673787988020E+00
C    8.5818195469173766E+00   -1.5760614087939166E+01   -8.1562977041898854E+00
C    1.0023970063613719E+01   -1.5748679769592025E+01   -8.2232837455903844E+00
C    1.0738608051947564E+01   -1.4532562786189114E+01   -8.2853940805503754E+00
C    1.2167316833415338E+01   -1.4503399261383032E+01   -8.3098654571240758E+00
C    1.2895162351471896E+01   -1.3303708561583010E+01   -8.2441811065571606E+00
C    1.4346373392333362E+01   -1.3277053729059729E+01   -8.3197745032118249E+00
C    1.0810519517940866E+01   -1.2096768646663390E+01   -8.1933115821187545E+00
C    1.2234165592423349E+01   -1.2066590970981423E+01   -8.1147746527996958E+00
C    1.2899526004198451E+01   -1.0850111381578062E+01   -8.0850537847192374E+00
C    1.4290910811682680E+01   -1.0855231046868671E+01   -8.1307961925142838E+00
C    1.0749633281213546E+01   -9.6322453355084701E+00   -8.1737710605580123E+00
C    1.2218845259990301E+01   -9.6534835986009853E+00   -8.1184666002836412E+00
C    1.2909534346945758E+01   -8.3967194294618324E+00   -8.2225920697212374E+00
C    1.4343542166157972E+01   -8.3830616882449718E+00   -8.1939552711805259E+00
C    1.0764389961779417E+01   -7.1432979491051878E+00   -8.2661389690162910E+00
C    1.2227271387514847E+01   -7.1759719663671584E+00   -8.2975157038529392E+00
C    1.2903042223594527E+01   -5.9085023370964453E+00   -8.4414774591430923E+00
C    1.4309795688431214E+01   -5.8934517730358573E+00   -8.2934293391129028E+00
C    1.0728680793752137E+01   -4.5893409879780176E+00   -8.4144988589946763E+00
C    1.2177158855666194E+01   -4.6577514823661668E+00   -8.4135498451325734E+00
C    1.2894483295616382E+01   -1.5722890980090639E+01   -8.5204042573914371E+00
C    1.4358483433385315E+01   -1.5703089851077273E+01   -8.5532124461307291E+00
C    2.2234569807501892E+00   -2.2088251871065037E+00   -7.9063611192167498E+00
C    3.6307589637593018E+00   -2.1782545968792824E+00   -7.9609663230058318E+00
C    4.3318583922955671E+00   -9.0080464840568120E-01   -8.0265601344149449E+00
C    5.7585742750359454E+00   -9.2210927979126900E-01   -8.0925147785222418E+00
C    2.2238989962348250E+00    2.8444076289351272E-01   -8.1187615333627203E+00
C    3.6463669144399344E+00    3.2242991417666600E-01   -8.0761314139751263E+00
C    4.4000467563961125E+00    1.5344933270781456E+00   -8.0517947708667759E+00
C    5.7826048254866640E+00    1.5406778695657066E+00   -8.1463526858556090E+00
C    2.2508990354288185E+00    2.7438959779301397E+00   -8.1139104768476518E+00
C    3.6572662163662977E+00    2.7592680197923234E+00   -8.0202714074653088E+00
C    4.3478560366323551E+00    4.0210880525727184E+00   -8.0377770671295714E+00
C    5.7812385990636592E+00    4.0208339147881977E+00   -8.0446800579155440E+00
C    2.1841022559828120E+00    5.1938140315588059E+00   -8.0921515847662171E+00
C    3.6530260495859226E+00    5.2230700595381512E+00   -7.9986224388808829E+00
C    4.3749268415320062E+00    6.5044124917372921E+00   -8.0140074172422189E+00
C    5.7875693379274411E+00    6.4635366470728659E+00   -8.0165600836721929E+00
C    2.2522132586209471E+00    7.7008672863593954E+00   -8.0654992250923261E+00
C    3.6480545434413041E+00    7.7091193441841535E+00   -8.0469368066422184E+00
C    4.3581424159656814E+00   -3.3772347375062068E+00   -8.0295744751222031E+00
C    5.8274111931869816E+00   -3.3540463783760845E+00   -8.1541036064227814E+00
C    6.5502394265004664E+00   -2.1512555295974543E+00   -8.1587478466652534E+00
C    7.9560115289605422E+00   -2.1507136364571164E+00   -8.3832024632230731E+00
C    8.6377657736264322E+00   -8.7293303836700675E-01   -8.5008374519012708E+00
C    1.0101720002355322E+01   -9.1994859484480507E-01   -8.4833319300846828E+00
C    6.4702148630604404E+00    3.1321005080646380E-01   -8.2644228452627679E+00
C    7.9040502220040372E+00    3.2840798546489425E-01   -8.3671620686863939E+00
C    8.6273301485731206E+00    1.5279167152887598E+00   -8.4685023309532319E+00
C    1.0062757942868169E+01    1.5130595376094715E+00   -8.6131056200559630E+00
C    6.4822457431715454E+00    2.7874460965631487E+00   -8.0799647442525746E+00
C    7.9134765166479664E+00    2.7690306323776359E+00   -8.2463968770152061E+00
C    8.5864203801999892E+00    3.9951065566454944E+00   -8.1890252099519891E+00
C    1.0037433726041925E+01    3.9990463819042028E+00   -8.2789828346666265E+00
C    6.5140895166167425E+00    5.2324550708521409E+00   -8.0267343833404574E+00
C    7.9143641816478931E+00    5.1967984586257217E+00   -8.1003492894652158E+00
C    8.5921933541196545E+00    6.4322178809253918E+00   -8.1583744681224939E+00
C    1.0005672658566455E+01    6.4197554977507778E+00   -8.1970529372021907E+00
C    6.4603221545010348E+00    7.6626792506945058E+00   -8.0374721901997646E+00
C    7.8598239377292076E+00    7.6827506791506073E+00   -8.1492687691698027E+00
C    8.6710156551284374E+00   -3.4047918359956646E+00   -8.3999355489978615E+00
C    1.0069861799246228E+01   -3.4384643215973036E+00   -8.3538484589440039E+00
C    1.0753350884645181E+01   -2.1711019564980183E+00   -8.4627941398346440E+00
C    1.2170115419045205E+01   -2.1495437375549313E+00   -8.4610175236662375E+00
C    1.2913838103242965E+01   -9.0501804541361508E-01   -8.4699113303729092E+00
C    1.4333634523628174E+01   -9.0538301910038277E-01   -8.4669743194851890E+00
C    1.0779276412075347E+01    3.0337029876124777E-01   -8.5137035823095850E+00
C    1.2177935921450581E+01    2.9000874826509604E-01   -8.5471821110246129E+00
C    1.2894193792326277E+01    1.5655609993033339E+00   -8.4827757271075246E+00
C    1.4316934626012841E+01    1.6178499850993466E+00   -8.4843317059091952E+00
C    1.0771039197171175E+01    2.7757759526662347E+00   -8.4478231377643489E+00
C    1.2166008179491500E+01    2.7675279634462631E+00   -8.4854032853785473E+00
C    1.2892814086261422E+01    4.0170520561589784E+00   -8.5125456415817045E+00
C    1.4302125279008679E+01    4.0116587327054649E+00   -8.4566385592691145E+00
C    1.0773806593301211E+01    5.2756182200160335E+00   -8.3009115983620010E+00
C    1.2214947714353126E+01    5.2497501399102626E+00   -8.3938408493234018E+00
C    1.2922250097867083E+01    6.4607713520938779E+00   -8.3809351143643660E+00
C    1.4331674630400313E+01    6.4616507885426557E+00   -8.4890252308009302E+00
C    1.0756261139355145E+01    7.6729659445443605E+00   -8.3087881507157633E+00
C    1.2210234963222860E+01    7.6853874451120756E+00   -8.3444511408504383E+00
C    1.2895895916874869E+01   -3.4032092020646698E+00   -8.3902270135097474E+00
C    1.4352412241098607E+01   -3.4052543933133328E+00   -8.4109928721034439E+00
O    2.0255293510648434E+02   -1.8586554419590078E+02    6.3612991487503407E+00
H    2.0273976561959222E+02   -1.8675004697899058E+02    6.0231225066825731E+00
H    2.0332428216976967E+02   -1.8527087624444553E+02    6.5077718523083874E+00
O    2.1990516906539847E+02   -1.5892450820886472E+02    7.8447646550374275E+00
H    2.1926948777679624E+02   -1.5856015213591553E+02    7.2295715910242810E+00
H    2.2033898705568990E+02   -1.5809177055679902E+02    8.2499024768648361E+00
O    2.1411970934059627E+02   -1.1444935165011370E+02    3.3105537230419868E-01
H    2.1371352203902578E+02   -1.1518381679404099E+02    7.3039143454199473E-01
H    2.1439501366019562E+02   -1.1386688462758852E+02    1.0889234132776897E+00
O    2.1253511642266059E+02   -2.0526509158630523E+02    4.9572106284882738E+00
H    2.1301992122446802E+02   -2.0440014580960207E+02    4.7816064006856918E+00
H    2.1206463285529028E+02   -2.0532201678232911E+02    4.0859186189338814E+00
O    2.0428602023894538E+02   -1.5175781619160233E+02    9.4002588283317419E+00
H    2.0459008331575049E+02   -1.5088255642892392E+02    9.8333394813867976E+00
H    2.0513837757128303E+02   -1.5217394368716421E+02    9.1704237546730880E+00
O    2.3274736774548182E+02   -1.7715296605084640E+02    3.2839093038054719E+00
H    2.3216074271122980E+02   -1.7690267620431973E+02    4.0395861684988752E+00
H    2.3353748115163449E+02   -1.7755380831491223E+02    3.8243016149793925E+00
O    2.9709513407821203E+02   -8.0082267333298731E+01    6.7151346125156168E+00
H    2.9803826273255970E+02   -8.0107535892817495E+01    6.9948646593074786E+00
H    2.9683100855099809E+02   -7.9206144766276665E+01    6.2381061483347917E+00
O    2.7710363520891605E+02   -1.8671567005802973E+02   -2.8728216448398047E+00
H    2.7754439627976643E+02   -1.8737260724170849E+02   -3.5036502943855750E+00
H    2.7631495853635488E+02   -1.8718722819044066E+02   -2.4552273565680127E+00
O    1.6574296750276977E+02   -1.6497499143609775E+02    9.0850934262838425E+00
H    1.6527627690224148E+02   -1.6547454314415319E+02    8.4090988860380023E+00
H    1.6516708448531674E+02   -1.6496820943660299E+02    9.8626785806678221E+00
O    3.8346691814965646E+02   -1.0974109212636594E+02   -4.9830608408940842E+00
H    3.8377240788842596E+02   -1.1053446467405961E+02   -4.4964935020602326E+00
H    3.8249581279627000E+02   -1.0986156524432818E+02   -4.9652890113006469E+00
O    2.0840445297616759E+02   -1.4356085435841979E+02    9.7804428644330450E+00
H    2.0906010358627248E+02   -1.4288046783610309E+02    9.2951260105191480E+00
H    2.0893117625694543E+02   -1.4437096980226221E+02    9.8554311690394290E+00
O    1.5123941242333123E+02   -9.0868946878823706E+01    1.4179869699485723E-01
H    1.5212538379619650E+02   -9.0787440519813984E+01   -3.9683102709604762E-01
H    1.5079415033612466E+02   -9.1636550130774225E+01   -2.4647256514149346E-01
O    2.2477384395328443E+02   -2.3820867382693348E+02   -8.8059570187011011E-03
H    2.2536584447620234E+02   -2.3743471264661915E+02   -7.8802917992350702E-02
H    2.2388484127234452E+02   -2.3783510858527717E+02    6.4322440836456843E-02
O    2.8083066287921287E+02   -2.8544488191622003E+02   -1.9696672967817106E+00
H    2.8084898324147014E+02   -2.8647696225492831E+02   -2.0920156511884498E+00
H    2.8174292111175026E+02   -2.8514580151574711E+02   -2.1698183319886994E+00
O    1.8384311630561720E+02   -2.0478926783288113E+01    5.7629546186574547E+00
H    1.8296183996336663E+02   -2.0654180299062073E+01    6.1990775160784706E+00
H    1.8408089222807632E+02   -1.9459949625113051E+01    5.7441680232620280E+00
O    2.2135625861906436E+02   -1.8153551120438274E+02    8.5255322382786396E+00
H    2.2165969844182951E+02   -1.8121124466725360E+02    7.5987718584239135E+00
H    2.2067897583747808E+02   -1.8093700608581656E+02    8.9299620155351036E+00
O    1.8967402424548095E+02   -7.6449200808111414E+01   -4.3375711233072972E-01
H    1.9061099055992813E+02   -7.6263716528400522E+01   -7.7457902346399266E-02
H    1.8970639761032893E+02   -7.7396358070314548E+01   -4.6187395847248175E-01
O    2.1800274634844118E+02   -1.2661413745705697E+02   -5.3886690814922487E+00
H    2.1765879871371030E+02   -1.2584892484863590E+02   -5.8255919249837769E+00
H    2.1898893615187359E+02   -1.2642588843931721E+02   -5.2087215920281320E+00
O    1.6854813429363244E+02   -1.7143066957681384E+02   -1.3478911314501194E+00
H    1.6871634360130881E+02   -1.7218731321241970E+02   -1.9446452605732683E+00