 # Version information for this restart file 
 # current date 2019-01-28 03:26:15.134
 # current working dir /scratch/snx3000/gtocci/gtocci/MEMBRANES/AIMD_US_IONS_GRA/potassium/aimd_us_pot/us_15
 # Program compiled at                             Thu Oct 11 21:49:41 CEST 2018
 # Program compiled on                                                  daint104
 # Program compiled for                                   CRAY_XC50-gfortran_gpu
 # Source code revision number                                     git:be74c20a5
 &GLOBAL
   PRINT_LEVEL  LOW
   PROJECT_NAME GRAS
   RUN_TYPE  MD
   WALLTIME 10200
 &END GLOBAL
 &MOTION
   &MD
     ENSEMBLE  NVT
     STEPS  100000
     TIMESTEP     9.9999999999999989E-01
     STEP_START_VAL  41340
     TIME_START_VAL     4.1339999999989828E+04
     ECONS_START_VAL    -8.3205259263450735E+03
     TEMPERATURE     3.0000000000000000E+02
     TEMP_KIND  T
     &BAROSTAT
       PRESSURE     1.0000000000000000E+00
       TIMECON     9.9999999999999986E+01
       VIRIAL  Z
     &END BAROSTAT
     &THERMOSTAT
       TYPE  NOSE
       REGION  GLOBAL
       &NOSE
         LENGTH  4
         TIMECON     9.9999999999999986E+01
         MTS  2
         &COORD
               1.8868116483300471E-01   -1.0859233839388660E+01   -2.4219422034769813E+01    2.9563745334981281E+01
         &END COORD
         &VELOCITY
               4.6665100077023240E-07    2.9417190235869533E-04    5.4933800615719639E-05   -2.2486401989485022E-04
         &END VELOCITY
         &MASS
               7.0145132684705392E+07    1.6237299232570693E+04    1.6237299232570693E+04    1.6237299232570693E+04
         &END MASS
         &FORCE
              -4.4229795073219467E-10   -5.7569277013939280E-08    2.8027094287228720E-08   -5.5492291400017432E-08
         &END FORCE
       &END NOSE
     &END THERMOSTAT
     &AVERAGES  T
       &RESTART_AVERAGES
         ITIMES_START  1
         AVECPU     4.6552841453792162E+01
         AVEHUGONIOT     0.0000000000000000E+00
         AVETEMP_BARO     0.0000000000000000E+00
         AVEPOT    -8.3232617637088351E+03
         AVEKIN     2.0523566048768718E+00
         AVETEMP     3.0003804827605120E+02
         AVEKIN_QM     0.0000000000000000E+00
         AVETEMP_QM     0.0000000000000000E+00
         AVEVOL     2.1331414786628052E+05
         AVECELL_A     4.8437460238125190E+01
         AVECELL_B     4.6608961231944768E+01
         AVECELL_C     9.4486306644279566E+01
         AVEALPHA     9.0000000000000057E+01
         AVEBETA     9.0000000000000057E+01
         AVEGAMMA     9.0000000000000057E+01
         AVE_ECONS    -2.0085195962135858E+00
         AVE_PRESS     0.0000000000000000E+00
         AVE_PXX     0.0000000000000000E+00
       &END RESTART_AVERAGES
     &END AVERAGES
     &PRINT
       &TEMP_KIND  SILENT
       &END TEMP_KIND
     &END PRINT
   &END MD
   &FREE_ENERGY
     &METADYN
       MIN_DISP    -1.0000000000000000E+00
       OLD_HILL_NUMBER  0
       OLD_HILL_STEP  0
       DO_HILLS  F
       STEP_START_VAL  41340
       NHILLS_START_VAL  0
       &METAVAR
         SCALE     1.0000000000000000E+00
         COLVAR  1
       &END METAVAR
       &PRINT
         &COLVAR  SILENT
           COMMON_ITERATION_LEVELS  3
           &EACH
             MD  1
           &END EACH
         &END COLVAR
       &END PRINT
     &END METADYN
   &END FREE_ENERGY
   &CONSTRAINT
     &COLLECTIVE
       COLVAR  1
       INTERMOLECULAR  T
       &RESTRAINT
         K     4.4625385281452931E-04
       &END RESTRAINT
     &END COLLECTIVE
     &COLVAR_RESTART
           1.4172945996642325E+01
     &END COLVAR_RESTART
   &END CONSTRAINT
   &PRINT
     &TRAJECTORY  SILENT
       &EACH
         MD  1
       &END EACH
     &END TRAJECTORY
     &VELOCITIES  SILENT
       &EACH
         MD  1
       &END EACH
     &END VELOCITIES
     &FORCES  SILENT
       UNIT eV*angstrom^-1
       &EACH
         MD  1
       &END EACH
     &END FORCES
     &RESTART  SILENT
       &EACH
         MD  1
       &END EACH
     &END RESTART
     &RESTART_HISTORY  SILENT
       &EACH
         MD  100
       &END EACH
     &END RESTART_HISTORY
   &END PRINT
 &END MOTION
 &FORCE_EVAL
   METHOD  QS
   &DFT
     BASIS_SET_FILE_NAME /users/gtocci/scratch_daint_3000/data_cp2k//BASIS_MOLOPT
     POTENTIAL_FILE_NAME /users/gtocci/scratch_daint_3000/data_cp2k//GTH_POTENTIALS
     WFN_RESTART_FILE_NAME ./GRAS-RESTART.wfn
     CHARGE  1
     &SCF
       MAX_SCF  10
       EPS_SCF     9.9999999999999995E-07
       SCF_GUESS  RESTART
       &OT  T
         MINIMIZER  DIIS
         PRECONDITIONER  FULL_KINETIC
       &END OT
       &OUTER_SCF  T
         EPS_SCF     9.9999999999999995E-07
         MAX_SCF  30
       &END OUTER_SCF
       &PRINT
         &RESTART  SILENT
           ADD_LAST  NUMERIC
           &EACH
             QS_SCF  50
           &END EACH
         &END RESTART
       &END PRINT
     &END SCF
     &QS
       MAP_CONSISTENT  T
       EXTRAPOLATION  ASPC
       EXTRAPOLATION_ORDER  4
     &END QS
     &MGRID
       NGRIDS  5
       CUTOFF     4.6000000000000000E+02
     &END MGRID
     &XC
       DENSITY_CUTOFF     1.0000000000000000E-10
       GRADIENT_CUTOFF     1.0000000000000000E-10
       TAU_CUTOFF     1.0000000000000000E-10
       &XC_GRID
         XC_DERIV  SPLINE2_SMOOTH
       &END XC_GRID
       &XC_FUNCTIONAL  NO_SHORTCUT
         &LIBXC  T
           FUNCTIONAL XC_GGA_X_OPTB88_VDW
         &END LIBXC
         &VWN  T
         &END VWN
       &END XC_FUNCTIONAL
       &VDW_POTENTIAL
         POTENTIAL_TYPE  NON_LOCAL
         &NON_LOCAL
           TYPE  DRSLL
           VERBOSE_OUTPUT  T
           KERNEL_FILE_NAME /users/gtocci/scratch_daint_3000/data_cp2k//vdW_kernel_table.dat
         &END NON_LOCAL
       &END VDW_POTENTIAL
     &END XC
     &REAL_TIME_PROPAGATION
       INITIAL_WFN  SCF_WFN
     &END REAL_TIME_PROPAGATION
     &PRINT
       &MULLIKEN  SILENT
         FILENAME =GRAS.mulliken
       &END MULLIKEN
     &END PRINT
   &END DFT
   &SUBSYS
     &CELL
       A     2.5632000000000001E+01    0.0000000000000000E+00    0.0000000000000000E+00
       B     0.0000000000000000E+00    2.4664400000000022E+01    0.0000000000000000E+00
       C     0.0000000000000000E+00    0.0000000000000000E+00    5.0000000000000028E+01
       MULTIPLE_UNIT_CELL  1 1 1
     &END CELL
     &COORD
C    1.3424744677531629E+01    1.1645645465229455E+01   -7.1116254676498303E-01
C    1.4859103047071956E+01    1.1661674410210534E+01   -6.4726711138687920E-01
C    1.5544709164433392E+01    1.2865895865714672E+01   -4.7697091090525934E-01
C    1.6968529282127509E+01    1.2840993872076366E+01   -4.2242528811521030E-01
C    1.3400697334215581E+01    1.4102683782034040E+01   -5.2829757305449465E-01
C    1.4828905681293470E+01    1.4085058025763345E+01   -3.8653866212739046E-01
C    1.5542907698026564E+01    1.5342762166370825E+01   -3.3942317276858602E-01
C    1.6960153988197028E+01    1.5329861822584030E+01   -2.0931379986597104E-01
C    1.3375174347399909E+01    1.6557469259460380E+01   -3.9839781298150889E-01
C    1.4809308775518847E+01    1.6583501631637670E+01   -2.7643705143319575E-01
C    1.5536998013301980E+01    1.7801322199645135E+01   -2.9825861474785687E-01
C    1.6987988623767759E+01    1.7808617341283909E+01   -2.4757158051685246E-01
C    1.3410305321537546E+01    1.9034617464740261E+01   -4.0694437165912251E-01
C    1.4838940168552989E+01    1.9017506062164198E+01   -2.9655192727582508E-01
C    1.5570123245808363E+01    2.0264239763728899E+01   -2.4876583439838792E-01
C    1.6979294260001051E+01    2.0265106020761923E+01   -2.3016906339980869E-01
C    1.3447183589050404E+01    2.1501021928045930E+01   -3.8077520311148572E-01
C    1.4881055574977111E+01    2.1543348365311893E+01   -2.8127994093356407E-01
C    1.5588408251036926E+01    1.0410582107851416E+01   -7.9192732413512146E-01
C    1.7010788577825487E+01    1.0379639276570657E+01   -5.8621094427377074E-01
C    1.7702320870453722E+01    1.1587167193655613E+01   -3.9367457182871651E-01
C    1.9126654525816001E+01    1.1598142210951707E+01   -2.0747694244820086E-01
C    1.9867980672319526E+01    1.2831734135929278E+01   -1.5170647911007382E-01
C    2.1244354250024209E+01    1.2864794505443752E+01   -2.9662920770249450E-02
C    1.7680980182670407E+01    1.4078784023740518E+01   -2.7565922365243051E-01
C    1.9123657838699405E+01    1.4051059979546819E+01   -2.8033106443706590E-01
C    1.9824752628727047E+01    1.5310660061077931E+01   -2.9675646343254947E-01
C    2.1271328147853588E+01    1.5291122195219261E+01   -1.2126688644583195E-01
C    1.7667946268039902E+01    1.6563312236190210E+01   -2.6036413228428179E-01
C    1.9094812484296799E+01    1.6537928166221821E+01   -2.9652260601267227E-01
C    1.9859322350373930E+01    1.7762185630919348E+01   -3.0338011943586629E-01
C    2.1268945337347333E+01    1.7727656768560767E+01   -2.1900404672417187E-01
C    1.7700542393014317E+01    1.9001960135654091E+01   -2.6176633823023632E-01
C    1.9163985234443096E+01    1.8992702116580972E+01   -2.6508107967789118E-01
C    1.9848748663713749E+01    2.0222476699183304E+01   -3.4838726075931681E-01
C    2.1283799352104644E+01    2.0209813673420253E+01   -3.7966662582634464E-01
C    1.7716639433030164E+01    2.1503764327384040E+01   -3.4548204234588503E-01
C    1.9117307274692774E+01    2.1459097343369933E+01   -3.7336980617635646E-01
C    1.9807316497517746E+01    1.0348939988640387E+01   -1.4250325712127435E-01
C    2.1242400397924989E+01    1.0387188707046048E+01    2.8229763035966731E-02
C    2.1912107978027297E+01    1.1634382120467395E+01    1.0721762939816912E-01
C    2.3354828227258551E+01    1.1614949995719035E+01    1.8571937949189588E-01
C    2.4081760451599603E+01    1.2850379808354432E+01    1.9061500619850480E-01
C    2.5506963314108045E+01    1.2861629026469769E+01    1.2678742351241928E-01
C    2.1988269832212826E+01    1.4060543413435031E+01   -2.5901629115037905E-02
C    2.3394258960645089E+01    1.4075526260393621E+01    1.5493658277830197E-01
C    2.4092812632278619E+01    1.5323337410434197E+01    1.0945342209158189E-01
C    2.5509838314028247E+01    1.5354452905320768E+01    9.2433246818993287E-02
C    2.1960154060891384E+01    1.6511314097471153E+01   -1.1776692431747598E-01
C    2.3390933076845442E+01    1.6545783666623510E+01   -8.0927476412591112E-02
C    2.4132917296423088E+01    1.7791627346040489E+01   -1.1223490509571613E-01
C    2.5549231157627144E+01    1.7803072060437742E+01   -1.1794356508316645E-01
C    2.1963118402257759E+01    1.8971530217569217E+01   -3.4479520218710052E-01
C    2.3408553718178052E+01    1.8982636940698058E+01   -2.5302176334324850E-01
C    2.4106835875903680E+01    2.0213063389445729E+01   -4.1541299826635608E-01
C    2.5535907181876535E+01    2.0250082272776918E+01   -3.4305897351407533E-01
C    2.1969804605855153E+01    2.1462769413290864E+01   -4.2231839153407225E-01
C    2.3392918450657664E+01    2.1436395998267436E+01   -4.3238827315831990E-01
C    2.4094509376848396E+01    1.0407779985344751E+01    2.0584311694321294E-01
C    2.5530824730791839E+01    1.0413839953185029E+01    1.4419162550865566E-01
C    1.3433420652271714E+01    2.3941676664958408E+01   -5.3294950226281412E-01
C    1.4872624848599978E+01    2.3994641500816595E+01   -3.5446576050391293E-01
C    1.5570653084374706E+01    2.5227185474887001E+01   -4.4175526360672618E-01
C    1.6989635821575789E+01    2.5228856227054280E+01   -4.1093735143533056E-01
C    1.3427244457057212E+01    2.6465227013430525E+01   -5.3778541004351366E-01
C    1.4841026423019633E+01    2.6473833159523679E+01   -5.7689974150345136E-01
C    1.5543429229018987E+01    2.7658377897011022E+01   -6.9600355757131205E-01
C    1.6962589592875805E+01    2.7664929442417996E+01   -6.6103443883261126E-01
C    1.3479469911516469E+01    2.8917940631582422E+01   -5.8626551457474485E-01
C    1.4885808263251073E+01    2.8900623384289364E+01   -6.9170702772846659E-01
C    1.5595754264646656E+01    3.0159013380801991E+01   -8.1084452916078831E-01
C    1.6993512152597024E+01    3.0123216679942789E+01   -6.3546972752909936E-01
C    1.3474680354775412E+01    3.1381737280754987E+01   -9.1868071176421751E-01
C    1.4878609877739045E+01    3.1386098448989301E+01   -8.7508676781448358E-01
C    1.5612976494652685E+01    3.2603172277944708E+01   -8.7382356259796634E-01
C    1.7007513353393531E+01    3.2587887502013587E+01   -6.6859305713527906E-01
C    1.3464058606256984E+01    3.3843543750837952E+01   -9.8440862895112247E-01
C    1.4891803723137336E+01    3.3842632021827725E+01   -9.2475160125199152E-01
C    1.5611381559390216E+01    2.2758390445549132E+01   -2.8341103322178723E-01
C    1.7021397665670460E+01    2.2730454953283356E+01   -3.9020149918777514E-01
C    1.7707945548802122E+01    2.4007231301374645E+01   -4.7446958679760243E-01
C    1.9125845350626932E+01    2.3976904518998829E+01   -5.2642193145132832E-01
C    1.9826411997688361E+01    2.5203271596380354E+01   -4.3878558239581394E-01
C    2.1260542436214163E+01    2.5161536954761701E+01   -3.6372396851488831E-01
C    1.7685531385869226E+01    2.6454951208674927E+01   -4.8515453474811049E-01
C    1.9115002441865219E+01    2.6446941345847893E+01   -4.5675621964808050E-01
C    1.9836366184045186E+01    2.7677371435763266E+01   -4.1231050791198715E-01
C    2.1252430558713765E+01    2.7634855251200079E+01   -3.4620705158712317E-01
C    1.7693199246903827E+01    2.8883586455762529E+01   -6.8713406725179349E-01
C    1.9119511377812920E+01    2.8923636623505679E+01   -4.9109971591925822E-01
C    1.9828876866717501E+01    3.0130009849082132E+01   -3.7708886310828832E-01
C    2.1252103629301210E+01    3.0116343889766259E+01   -2.1688960601176638E-01
C    1.7702327096366407E+01    3.1385028999675615E+01   -5.7837248653978657E-01
C    1.9123375201021499E+01    3.1390379056248317E+01   -4.3329131363413442E-01
C    1.9842068382390263E+01    3.2610863498668600E+01   -2.6027775289123339E-01
C    2.1260022682694856E+01    3.2579678396454398E+01    3.8614282148772390E-02
C    1.7705752042573611E+01    3.3805378851927188E+01   -5.4585357084125263E-01
C    1.9117359676954752E+01    3.3816420925014029E+01   -3.2208701859618227E-01
C    1.9829465888249704E+01    2.2695787767582267E+01   -4.8867858315971346E-01
C    2.1249169928959017E+01    2.2702993669363394E+01   -3.7397556518735842E-01
C    2.1952598656885737E+01    2.3925888328116645E+01   -2.9202432657868671E-01
C    2.3378873224294900E+01    2.3915652736998766E+01   -2.1234343996849656E-01
C    2.4115682470063884E+01    2.5189827106913036E+01   -2.1007880046634050E-01
C    2.5537884986273905E+01    2.5185402437565390E+01   -2.8973891085960390E-01
C    2.1948968540338953E+01    2.6387176018169036E+01   -3.1298224271576636E-01
C    2.3383251668521407E+01    2.6390564957055613E+01   -1.8564115907061524E-01
C    2.4113443980893170E+01    2.7668413244936943E+01   -1.4658220816093542E-01
C    2.5534947573846239E+01    2.7679990663201636E+01   -1.9764681412847634E-01
C    2.1952803551429319E+01    2.8906724194760177E+01   -2.3824466289046886E-01
C    2.3385280951982399E+01    2.8900583081071314E+01   -6.2238487913500007E-02
C    2.4071300552219942E+01    3.0143626365986506E+01    8.0933815077716728E-02
C    2.5510444950093120E+01    3.0142383183621458E+01    3.8428636979195095E-02
C    2.1964661414771374E+01    3.1358897167373414E+01   -1.0567632090097328E-02
C    2.3353734915031275E+01    3.1361522418042352E+01    1.3826552393234975E-01
C    2.4062100592088385E+01    3.2612505206109844E+01    1.8352654063986074E-01
C    2.5528695033752989E+01    3.2606635219300315E+01    1.6701237042914283E-01
C    2.1956939279628639E+01    3.3817192615286245E+01    1.4340901456240748E-01
C    2.3358069364962571E+01    3.3855378152272742E+01    2.1632744286807637E-01
C    2.4070617876108969E+01    2.2664194749148830E+01   -2.9947797972876727E-01
C    2.5488598441072167E+01    2.2690383842230055E+01   -2.5619399794149250E-01
C    2.6222102290314165E+01    1.1629439931867852E+01    4.1093261505943154E-02
C    2.7624339080942317E+01    1.1637518050255375E+01   -9.7313078942977430E-02
C    2.8332542600386944E+01    1.2855309160906490E+01   -2.3628351213969434E-01
C    2.9762392197058386E+01    1.2834460854089777E+01   -3.5610671601585514E-01
C    2.6228552014178231E+01    1.4130361532629273E+01    9.9381151900872294E-02
C    2.7652063131198684E+01    1.4071253696524346E+01   -9.6306424953822120E-02
C    2.8361505590899224E+01    1.5317560995785060E+01   -1.8099982439699897E-01
C    2.9790135673812568E+01    1.5309030359701888E+01   -3.2840555555320095E-01
C    2.6216187867597327E+01    1.6579995174355091E+01   -5.3542342080195628E-02
C    2.7636945500516212E+01    1.6544479787479489E+01   -1.4805038966475095E-01
C    2.8329207004485706E+01    1.7764059275745627E+01   -1.5545131856839065E-01
C    2.9753574252883702E+01    1.7795062990485953E+01   -2.3064534138543294E-01
C    2.6216431963591379E+01    1.9022794487326976E+01   -2.8627122321565507E-01
C    2.7629857048455804E+01    1.9029652359772371E+01   -2.3688570498461001E-01
C    2.8320701308933572E+01    2.0282082345964461E+01   -2.3215480413226244E-01
C    2.9754478255980015E+01    2.0268590612622337E+01   -2.5879827420105145E-01
C    2.6215364186209310E+01    2.1500829582008318E+01   -2.2069956549684736E-01
C    2.7647051434533505E+01    2.1511711223823070E+01   -2.0358118655135660E-01
C    2.8387001333724957E+01    1.0405068327473764E+01   -8.9801176893966092E-02
C    2.9793739694255926E+01    1.0372152619924689E+01   -3.3685851782987158E-01
C    3.0445540113449685E+01    1.1607845531756798E+01   -4.5121190632053937E-01
C    3.1887950648457483E+01    1.1661449186596624E+01   -6.5964578412771013E-01
C    3.2625619868896507E+01    1.2923175073761911E+01   -6.7178485289997603E-01
C    3.4017819183236924E+01    1.2905017654769274E+01   -7.9182562317565408E-01
C    3.0486619926134018E+01    1.4078975356997985E+01   -3.9307534567821012E-01
C    3.1929086992197753E+01    1.4136202809548772E+01   -5.1518523189821364E-01
C    3.2616851249290484E+01    1.5344117850489130E+01   -4.7565432697247811E-01
C    3.4054686415118134E+01    1.5342128077708121E+01   -5.4355423723330853E-01
C    3.0514728642701034E+01    1.6574544845985343E+01   -3.0834061612885361E-01
C    3.1903154615007004E+01    1.6586234781233816E+01   -3.9955637875082728E-01
C    3.2593679063168850E+01    1.7828400471009726E+01   -4.9447429607428101E-01
C    3.4025004650562273E+01    1.7808090495515060E+01   -6.3818707283176468E-01
C    3.0448602737849161E+01    1.9026352658856162E+01   -2.7714460266779417E-01
C    3.1864406766445889E+01    1.9077143072403221E+01   -4.6278228646836594E-01
C    3.2611183083606001E+01    2.0270065776015411E+01   -5.0597290658762206E-01
C    3.4043929786478728E+01    2.0306460032832195E+01   -6.0566471541773226E-01
C    3.0493133061887253E+01    2.1498455321635781E+01   -3.2581837644624517E-01
C    3.1916787613651781E+01    2.1518701642785850E+01   -3.7241295493698334E-01
C    3.2607042283783287E+01    1.0410632577496731E+01   -7.4245421252568422E-01
C    3.4022867953985383E+01    1.0406732895295074E+01   -9.1407541798281211E-01
C    3.4713438283189575E+01    1.1667967992311620E+01   -9.2852873299614147E-01
C    3.6173847968867925E+01    1.1632441400035081E+01   -8.9805163947104782E-01
C    3.6849806516922101E+01    1.2846283657673554E+01   -7.8310264086234005E-01
C    3.8304127172827016E+01    1.2877007328664964E+01   -6.5504008720996998E-01
C    3.4730722914997621E+01    1.4101632908378450E+01   -6.2485426922540344E-01
C    3.6158675761522218E+01    1.4077655613574287E+01   -6.6631698059281097E-01
C    3.6882600195055872E+01    1.5326617630463712E+01   -5.9068639128997880E-01
C    3.8297036689737538E+01    1.5331994221840969E+01   -4.9256616519548452E-01
C    3.4761319222635073E+01    1.6576485630226482E+01   -5.6307130127529437E-01
C    3.6156976224925685E+01    1.6589209458754443E+01   -6.0349285022711785E-01
C    3.6914716937775829E+01    1.7822248791563705E+01   -6.8766946276181995E-01
C    3.8319754384962579E+01    1.7803993508066554E+01   -5.4730846002237488E-01
C    3.4757274289692184E+01    1.9072070733962697E+01   -6.6449430722922453E-01
C    3.6197512293054920E+01    1.9033082272412212E+01   -6.7224554998078967E-01
C    3.6911991050471507E+01    2.0252414311444216E+01   -5.8219001207183685E-01
C    3.8380431429017428E+01    2.0283961032354615E+01   -4.4988805232001644E-01
C    3.4817374656079728E+01    2.1512241348459547E+01   -6.6746588280677011E-01
C    3.6232977040378501E+01    2.1491010211587181E+01   -6.7888771344036170E-01
C    3.6882057460667440E+01    1.0400461592348382E+01   -9.3447386200078120E-01
C    3.8306224095422664E+01    1.0398307874336082E+01   -9.0205941057417260E-01
C    2.6225880181816159E+01    2.3966749976292572E+01   -2.9301542131749969E-01
C    2.7650794224147582E+01    2.3953794506132020E+01   -3.6350725734962563E-01
C    2.8368130522503481E+01    2.5187423999301622E+01   -3.1642419680526468E-01
C    2.9834824274098306E+01    2.5194320596305364E+01   -2.8320426376142760E-01
C    2.6255983696754488E+01    2.6436508633792304E+01   -2.4558032880770428E-01
C    2.7662771154925736E+01    2.6451130979930937E+01   -3.4348156915766243E-01
C    2.8343243532635618E+01    2.7675878086742387E+01   -2.6991015326988083E-01
C    2.9805360774274977E+01    2.7644680281413120E+01   -1.1225224704265935E-01
C    2.6228519941449793E+01    2.8941535306093467E+01   -1.2817227310678936E-01
C    2.7631218005850474E+01    2.8906393256894734E+01   -1.2548090146660806E-01
C    2.8364402491814513E+01    3.0146928364817501E+01    5.6103681434542467E-02
C    2.9796040954041406E+01    3.0147808078810016E+01    7.8643638164303434E-02
C    2.6236146779961267E+01    3.1398404516003399E+01    1.1561547875535591E-01
C    2.7694016823595550E+01    3.1377841177719652E+01    6.1896064718203539E-02
C    2.8397458717230251E+01    3.2619838236572626E+01    6.5585925071691429E-03
C    2.9826486507963075E+01    3.2605905104667713E+01   -1.0802770861002493E-01
C    2.6253242758906392E+01    3.3848690056905717E+01    1.7200647730187274E-01
C    2.7682772815677279E+01    3.3845267731452417E+01    3.6771794452948647E-02
C    2.8379587678552632E+01    2.2746717365707376E+01   -2.8775860587198521E-01
C    2.9770712465816562E+01    2.2740442788955303E+01   -2.4544556415167026E-01
C    3.0507977597291610E+01    2.3965041255524863E+01   -2.6948984748359900E-01
C    3.1933406425344558E+01    2.3953452107457039E+01   -3.2926087580943930E-01
C    3.2676806787741747E+01    2.5158496013675649E+01   -2.3960346915164565E-01
C    3.4120354988245381E+01    2.5206107134384848E+01   -4.2442178120581103E-01
C    3.0559198355806938E+01    2.6429246717681249E+01   -1.9373976792272568E-01
C    3.1982228833956000E+01    2.6412087484414570E+01   -1.4307300358530520E-01
C    3.2705409473594095E+01    2.7668427129776244E+01   -1.3367484284701392E-01
C    3.4141470147847734E+01    2.7679974099895368E+01   -2.9281244909815646E-01
C    3.0523977160462120E+01    2.8883428793724349E+01   -1.1124764417237146E-02
C    3.1981798148208121E+01    2.8899931685541677E+01   -1.0273853355355785E-01
C    3.2661871606303123E+01    3.0116939100674266E+01   -2.0659838207920986E-01
C    3.4071509589049349E+01    3.0187449520306217E+01   -2.9375198603461761E-01
C    3.0524762987147685E+01    3.1361697416551692E+01   -3.3820690193790560E-02
C    3.1937270327159769E+01    3.1354130741407367E+01   -2.3975012463156106E-01
C    3.2606512622046651E+01    3.2581564899542066E+01   -4.8830784440842939E-01
C    3.4046549015554852E+01    3.2561275036543336E+01   -7.0118657364797132E-01
C    3.0544635994160156E+01    3.3834615613263523E+01   -3.6447086511164356E-01
C    3.1933129946095409E+01    3.3838019481629388E+01   -5.4414254141383289E-01
C    3.2645058466249203E+01    2.2734956519831147E+01   -4.4535779228614825E-01
C    3.4060975779193789E+01    2.2737491735805129E+01   -6.3688225662151787E-01
C    3.4817230643453442E+01    2.3957092370157646E+01   -6.2518841094943078E-01
C    3.6259101304330251E+01    2.3975534833280822E+01   -7.5428333393619262E-01
C    3.6981531255513900E+01    2.5213269277325246E+01   -6.0796687944860595E-01
C    3.8385343707774631E+01    2.5197109340437468E+01   -5.0218320769446090E-01
C    3.4849921344688696E+01    2.6475059557049281E+01   -4.2666031870792137E-01
C    3.6277569809489840E+01    2.6440322455663413E+01   -4.8117349287307865E-01
C    3.6938206305643462E+01    2.7710170888995812E+01   -4.2831495975783962E-01
C    3.8350544234802008E+01    2.7690258638129379E+01   -4.5259408253169187E-01
C    3.4823382681596449E+01    2.8967240721872287E+01   -2.8868355464331030E-01
C    3.6215786419063988E+01    2.8968635721242197E+01   -4.0883115279155635E-01
C    3.6964563306498391E+01    3.0193434991246470E+01   -5.6085891897916429E-01
C    3.8398161215464270E+01    3.0167868495729198E+01   -7.0418833955947513E-01
C    3.4776750775707853E+01    3.1374392631492299E+01   -5.5659672577714792E-01
C    3.6228411975953108E+01    3.1387352467966316E+01   -7.1567873813117966E-01
C    3.6934883782902027E+01    3.2612809680489718E+01   -9.3793203885568921E-01
C    3.8386041277517243E+01    3.2624772814844526E+01   -9.3368586645336993E-01
C    3.4735439098167959E+01    3.3822873182440482E+01   -9.4784943900778262E-01
C    3.6152903917187409E+01    3.3833913153472331E+01   -9.7921686723806078E-01
C    3.6962447508444818E+01    2.2748971760387967E+01   -7.3474958243255462E-01
C    3.8349670527592636E+01    2.2734189182498479E+01   -5.6405414692324796E-01
O    3.2832945254928421E+02   -8.4984281541292958E+01    1.6243566914360407E+01
H    3.2748769213003607E+02   -8.4585501215141548E+01    1.6551115763744054E+01
H    3.2872710850767317E+02   -8.5198044549850636E+01    1.7113311431294619E+01
O    4.7206043557376427E+02   -6.0961390227559299E+01    1.3892884304055041E+01
H    4.7151909745888213E+02   -6.0871436335701439E+01    1.4657319876635736E+01
H    4.7170534760751178E+02   -6.1702690148353398E+01    1.3357870553318042E+01
O    3.0044565661187028E+02    3.2716376977382126E+01    1.3727679377950732E+01
H    3.0041674203288142E+02    3.3413954800809869E+01    1.3027688026539950E+01
H    3.0085761204326036E+02    3.1930374068970679E+01    1.3348190804373850E+01
O    3.4620471584927589E+02   -7.5790539006692583E+01    8.1624177956463413E+00
H    3.4701727295304750E+02   -7.5291832966954232E+01    8.2377905812050596E+00
H    3.4552133194372436E+02   -7.5068562637996862E+01    8.1125954825093185E+00
O    2.7831345813830728E+02   -1.1843832827053573E+01    1.8590888989922568E+01
H    2.7861290668826848E+02   -1.2734499585190656E+01    1.8194581219633786E+01
H    2.7760221324532148E+02   -1.2123908757488875E+01    1.9155856236575485E+01
O    2.9579659291691041E+02   -1.0394376378362496E+02    1.5226927957071844E+01
H    2.9545407723878918E+02   -1.0336711148955820E+02    1.5936837973441220E+01
H    2.9543363887069080E+02   -1.0480295363882364E+02    1.5487627970151028E+01
O    4.1215178554295528E+02    4.4314184845308027E+01    1.0343089706450314E+01
H    4.1209225152216135E+02    4.5310873891480490E+01    1.0307180554576350E+01
H    4.1128615033219796E+02    4.3915443072845513E+01    1.0603064182181228E+01
O    2.5406100917122203E+02   -4.0247076340270638E+01    1.2755007912343823E+01
H    2.5389296624824649E+02   -4.0970909015419252E+01    1.3388624872731345E+01
H    2.5394045185268999E+02   -4.0440313266318469E+01    1.1770010444326653E+01
O    2.5336260656938984E+02    4.4334736189082690E+01    6.1351757846911301E+00
H    2.5290217555371800E+02    4.3548486688055746E+01    5.7301474624160891E+00
H    2.5262565103026930E+02    4.4832629715831466E+01    6.5919190981665903E+00
O    4.5793200753532062E+02    5.7354543883375705E+01    6.3619966250024440E+00
H    4.5742116462226642E+02    5.7083371138362345E+01    5.5661963805318546E+00
H    4.5743799385650118E+02    5.6971613437397544E+01    7.1577310201840101E+00
O    3.5183821267937270E+02   -4.9219293407228058E+01    5.8830808541704211E+00
H    3.5088386033709867E+02   -4.9392445767342650E+01    6.1919742540690130E+00
H    3.5213490545173880E+02   -5.0167673040333227E+01    5.6592725022442023E+00
O    3.0687212746282006E+02    1.0480236079849156E+01    8.4112582741953990E+00
H    3.0605388015860120E+02    1.0622251171381494E+01    7.8870733487272107E+00
H    3.0682320986582687E+02    1.1121212260792642E+01    9.1492018543433851E+00
O    3.1856495887244336E+02   -9.8302168057070531E+01    7.9155874571554614E+00
H    3.1902967424951055E+02   -9.7599694482642235E+01    8.4340233645758360E+00
H    3.1872458652973819E+02   -9.7949628990040566E+01    7.0082031129780891E+00
O    3.6826244663521783E+02   -1.1674488158085956E+02    1.3144632417743793E+01
H    3.6893126203810255E+02   -1.1747923218177121E+02    1.3031796392712918E+01
H    3.6772701114756939E+02   -1.1654558103119496E+02    1.2342756613048856E+01
O    2.2731974371518103E+02    1.0908379709807573E+02    7.2053994643333779E+00
H    2.2731795797324907E+02    1.0834477986492276E+02    6.5550510732093930E+00
H    2.2699588142975094E+02    1.0989044902432528E+02    6.7410293334519213E+00
O    3.2845189839776458E+02    5.6671042315286194E+01    8.5082081126743283E+00
H    3.2781168396274245E+02    5.7493519732457131E+01    8.5428731534915840E+00
H    3.2787024696804764E+02    5.5853159282966509E+01    8.4966489162001650E+00
O    3.2475480192138019E+02   -2.6490344744566809E+01    8.3023675279445630E+00
H    3.2481034525454214E+02   -2.7429560258828811E+01    8.7329139632378165E+00
H    3.2550501215730276E+02   -2.6003440795932523E+01    8.7395949465489977E+00
O    4.0192097522636971E+02   -3.3720056587989028E+01    7.0264117990512638E+00
H    4.0279801175478616E+02   -3.4193921680672091E+01    6.8813229917966972E+00
H    4.0221608711477722E+02   -3.2810185908013558E+01    6.8777890348638948E+00
O    3.5838918941086462E+02   -4.0364466595598776E+00    5.8774684099880830E+00
H    3.5745191993867547E+02   -4.2955050616778898E+00    5.9040744518582837E+00