 # Version information for this restart file 
 # current date 2020-01-19 14:05:21.830
 # current working dir /scratch/snx3000/gtocci/gtocci/MEMBRANES/AIMD_US_IONS_BN/aimd_us_iodide/us_27
 # Program compiled at                              Fri Nov 22 15:19:42 CET 2019
 # Program compiled on                                                  daint102
 # Program compiled for                                   CRAY_XC50-gfortran_gpu
 # Source code revision number                                       git:a698b45
 &GLOBAL
   PRINT_LEVEL  LOW
   PROJECT_NAME BNS
   RUN_TYPE  MD
   WALLTIME 86400
 &END GLOBAL
 &MOTION
   &MD
     ENSEMBLE  NVT
     STEPS  2000
     TIMESTEP     9.9999999999999989E-01
     STEP_START_VAL  42857
     TIME_START_VAL     4.2856999999987820E+04
     ECONS_START_VAL    -8.4830307113366398E+03
     TEMPERATURE     3.0000000000000000E+02
     TEMP_KIND  T
     &BAROSTAT
       PRESSURE     1.0000000000000000E+00
       TIMECON     9.9999999999999986E+01
       VIRIAL  Z
     &END BAROSTAT
     &THERMOSTAT
       TYPE  NOSE
       REGION  GLOBAL
       &NOSE
         LENGTH  4
         TIMECON     9.9999999999999986E+01
         MTS  2
         &COORD
               2.8225146910522780E-01    1.8799376233378371E+00    2.4694778400070514E+00   -1.3837156521024864E+01
         &END COORD
         &VELOCITY
               1.5889347674298148E-06    1.5267497106129070E-04   -4.2704575263277178E-04    3.1744161785126352E-05
         &END VELOCITY
         &MASS
               7.0145132684705392E+07    1.6237299232570693E+04    1.6237299232570693E+04    1.6237299232570693E+04
         &END MASS
         &FORCE
              -1.4821906300221492E-10   -4.7603250687068995E-08   -3.5200367061539113E-08    1.2385806099158542E-07
         &END FORCE
       &END NOSE
     &END THERMOSTAT
     &AVERAGES  T
       &RESTART_AVERAGES
         ITIMES_START  1
         AVECPU     2.4346580356648744E+01
         AVEHUGONIOT     0.0000000000000000E+00
         AVETEMP_BARO     0.0000000000000000E+00
         AVEPOT    -8.4858067285775505E+03
         AVEKIN     2.0538173265291526E+00
         AVETEMP     3.0025159404709495E+02
         AVEKIN_QM     0.0000000000000000E+00
         AVETEMP_QM     0.0000000000000000E+00
         AVEVOL     2.2086622704881208E+05
         AVECELL_A     4.9287836997924956E+01
         AVECELL_B     4.7426456757032106E+01
         AVECELL_C     9.4486306644279694E+01
         AVEALPHA     9.0000000000000000E+01
         AVEBETA     9.0000000000000000E+01
         AVEGAMMA     9.0000000000000000E+01
         AVE_ECONS     4.3060714797185227E+01
         AVE_PRESS     0.0000000000000000E+00
         AVE_PXX     0.0000000000000000E+00
       &END RESTART_AVERAGES
     &END AVERAGES
     &PRINT
       &TEMP_KIND  SILENT
       &END TEMP_KIND
     &END PRINT
   &END MD
   &FREE_ENERGY
     &METADYN
       MIN_DISP    -1.0000000000000000E+00
       OLD_HILL_NUMBER  0
       OLD_HILL_STEP  0
       DO_HILLS  F
       STEP_START_VAL  42857
       NHILLS_START_VAL  0
       &METAVAR
         SCALE     1.0000000000000000E+00
         COLVAR  1
       &END METAVAR
       &PRINT
         &COLVAR  SILENT
           COMMON_ITERATION_LEVELS  3
           &EACH
             MD  1
           &END EACH
         &END COLVAR
       &END PRINT
     &END METADYN
   &END FREE_ENERGY
   &CONSTRAINT
     &COLLECTIVE
       COLVAR  1
       INTERMOLECULAR  T
       &RESTRAINT
         K     4.4625385281452931E-04
       &END RESTRAINT
     &END COLLECTIVE
     &COLVAR_RESTART
           2.5733636537908399E+01
     &END COLVAR_RESTART
   &END CONSTRAINT
   &PRINT
     &TRAJECTORY  SILENT
       &EACH
         MD  1
       &END EACH
     &END TRAJECTORY
     &VELOCITIES  SILENT
       &EACH
         MD  1
       &END EACH
     &END VELOCITIES
     &FORCES  SILENT
       UNIT eV*angstrom^-1
       &EACH
         MD  1
       &END EACH
     &END FORCES
     &RESTART  SILENT
       &EACH
         MD  1
       &END EACH
     &END RESTART
     &RESTART_HISTORY  SILENT
       &EACH
         MD  100
       &END EACH
     &END RESTART_HISTORY
   &END PRINT
 &END MOTION
 &FORCE_EVAL
   METHOD  QS
   &DFT
     BASIS_SET_FILE_NAME /users/gtocci/scratch_daint_3000/data_cp2k//BASIS_MOLOPT
     POTENTIAL_FILE_NAME /users/gtocci/scratch_daint_3000/data_cp2k//GTH_POTENTIALS
     WFN_RESTART_FILE_NAME ./BNS-RESTART.wfn
     CHARGE  -1
     &SCF
       MAX_SCF  10
       EPS_SCF     9.9999999999999995E-07
       SCF_GUESS  RESTART
       &OT  T
         MINIMIZER  DIIS
         PRECONDITIONER  FULL_KINETIC
       &END OT
       &OUTER_SCF  T
         EPS_SCF     9.9999999999999995E-07
         MAX_SCF  30
       &END OUTER_SCF
       &PRINT
         &RESTART  SILENT
           ADD_LAST  NUMERIC
           &EACH
             QS_SCF  50
           &END EACH
         &END RESTART
       &END PRINT
     &END SCF
     &QS
       MAP_CONSISTENT  T
       EXTRAPOLATION  ASPC
       EXTRAPOLATION_ORDER  4
     &END QS
     &MGRID
       NGRIDS  5
       CUTOFF     4.6000000000000000E+02
     &END MGRID
     &XC
       DENSITY_CUTOFF     1.0000000000000000E-10
       GRADIENT_CUTOFF     1.0000000000000000E-10
       TAU_CUTOFF     1.0000000000000000E-10
       &XC_GRID
         XC_DERIV  SPLINE2_SMOOTH
       &END XC_GRID
       &XC_FUNCTIONAL  NO_SHORTCUT
         &LIBXC  T
           FUNCTIONAL XC_GGA_X_OPTB88_VDW
         &END LIBXC
         &VWN  T
         &END VWN
       &END XC_FUNCTIONAL
       &VDW_POTENTIAL
         POTENTIAL_TYPE  NON_LOCAL
         &NON_LOCAL
           TYPE  DRSLL
           VERBOSE_OUTPUT  T
           KERNEL_FILE_NAME /users/gtocci/scratch_daint_3000/data_cp2k//vdW_kernel_table.dat
           CUTOFF     3.6000000000000000E+02
         &END NON_LOCAL
       &END VDW_POTENTIAL
     &END XC
     &REAL_TIME_PROPAGATION
       INITIAL_WFN  SCF_WFN
     &END REAL_TIME_PROPAGATION
     &PRINT
       &MULLIKEN  SILENT
         FILENAME =BNS.mulliken
       &END MULLIKEN
     &END PRINT
   &END DFT
   &SUBSYS
     &CELL
       A     2.6082000000000019E+01    0.0000000000000000E+00    0.0000000000000000E+00
       B     0.0000000000000000E+00    2.5097000000000001E+01    0.0000000000000000E+00
       C     0.0000000000000000E+00    0.0000000000000000E+00    5.0000000000000028E+01
       MULTIPLE_UNIT_CELL  1 1 1
     &END CELL
     &COORD
B   -6.5523863577717796E+00    3.0982406964721534E+00   -3.4875527626589303E+01
B   -4.3576553066678603E+00    4.4132438035043506E+00   -3.4892058380800982E+01
B   -6.4804107649602329E+00    5.5948504871449440E+00   -3.4699481712814404E+01
B   -4.3195882907997039E+00    6.8828531892548837E+00   -3.4940253500710156E+01
B   -6.5202127023325085E+00    8.1352498670789064E+00   -3.4968545746693451E+01
B   -4.3211547529979475E+00    9.4261263514543092E+00   -3.5063985032728645E+01
B   -6.5229184678648622E+00    1.0648685548436879E+01   -3.5146874172711875E+01
B   -4.3280880467642424E+00    1.1885881863835328E+01   -3.5337288028048874E+01
B   -6.5296200088431480E+00    1.3124902762041014E+01   -3.5263729719934275E+01
B   -4.2615157529441845E+00    1.4399808469527905E+01   -3.5488355310491116E+01
B   -2.2209335596723014E+00    3.1063766589654542E+00   -3.5007788982256415E+01
B    3.3374509975679062E-02    4.3389723656148380E+00   -3.4974914734718993E+01
B   -2.0837223848852791E+00    5.6274318229011477E+00   -3.5048383887206491E+01
B    2.5131513320915587E-02    6.8949213622924317E+00   -3.5040508260770004E+01
B   -2.1282677857910497E+00    8.2074982021941150E+00   -3.5028708865616139E+01
B    8.4067995726066387E-03    9.4493922455586574E+00   -3.5059343353590265E+01
B   -2.2464097966491066E+00    1.0673932399024604E+01   -3.5188531539093809E+01
B   -1.7109734084109873E-02    1.1886853185854621E+01   -3.5188152732634371E+01
B   -2.1558836220354252E+00    1.3167287153301665E+01   -3.5394016811535558E+01
B    6.6135047740008224E-02    1.4427793443787760E+01   -3.5487944216610245E+01
B    2.2115373876989803E+00    3.1045371013998739E+00   -3.5075491988891343E+01
B    4.3817653675558796E+00    4.3348390012529983E+00   -3.4768213966702078E+01
B    2.2399387490495237E+00    5.5974941255768735E+00   -3.4981313249716351E+01
B    4.3175789775109621E+00    6.9155227731471332E+00   -3.4742929199149316E+01
B    2.1810460811914125E+00    8.1808556964905002E+00   -3.5036872250495293E+01
B    4.3625468247622194E+00    9.4038274335245422E+00   -3.5106610915781943E+01
B    2.1535235218260591E+00    1.0684531035645996E+01   -3.5157550499221358E+01
B    4.3533053313891301E+00    1.1868569138678250E+01   -3.5274112369095526E+01
B    2.2050934580193884E+00    1.3144151201291972E+01   -3.5460214683167450E+01
B    4.3777379190053383E+00    1.4397340592887897E+01   -3.5462785201138466E+01
N   -5.0696697852925094E+00    3.1126293103599467E+00   -3.4863851203445037E+01
N   -2.9017634831726875E+00    4.3927253866384914E+00   -3.5018758229644519E+01
N   -5.0713047013974171E+00    5.6658976871821292E+00   -3.4728953257658986E+01
N   -2.8548367348700152E+00    6.9129325386271008E+00   -3.4887142701689839E+01
N   -5.0151686905671502E+00    8.1851148016848487E+00   -3.5056423650925019E+01
N   -2.8499427601255896E+00    9.4599676693188393E+00   -3.5069726493759781E+01
N   -5.0576637083642320E+00    1.0678354630666933E+01   -3.5184261454720442E+01
N   -2.8881054324701254E+00    1.1913545807969161E+01   -3.5351874043619922E+01
N   -5.0427523688764957E+00    1.3137539496013835E+01   -3.5435628968604632E+01
N   -2.8596862433909607E+00    1.4427248129007145E+01   -3.5448622793883963E+01
N   -7.1408171170626056E-01    3.1213083605416769E+00   -3.4978579957595919E+01
N    1.5085256049142000E+00    4.3602826240110284E+00   -3.5043309690023221E+01
N   -6.8961771699622731E-01    5.6260619268730503E+00   -3.4934831935160275E+01
N    1.5122634048457475E+00    6.8574093447563937E+00   -3.5098239036068030E+01
N   -7.4521633819365174E-01    8.1266093086904743E+00   -3.5094381061014481E+01
N    1.4498035625987011E+00    9.4083536572760753E+00   -3.5076228728512881E+01
N   -7.0491270362836922E-01    1.0666429925159797E+01   -3.5099043369682356E+01
N    1.4419597409526770E+00    1.1922196282973722E+01   -3.5287218239198566E+01
N   -7.1674611471667904E-01    1.3162184436451975E+01   -3.5322835914231277E+01
N    1.4714585387979808E+00    1.4427333681702130E+01   -3.5612932264343947E+01
N    3.6361410105377958E+00    3.1035713517805306E+00   -3.4902992268329399E+01
N    5.8034985301610806E+00    4.3544997538860617E+00   -3.4668267090359890E+01
N    3.6793464419357118E+00    5.5974499286104615E+00   -3.4719189246707273E+01
N    5.8003211979721510E+00    6.8416981999319129E+00   -3.4606993728137766E+01
N    3.6436206273205429E+00    8.1419303447602456E+00   -3.5028902564804831E+01
N    5.7901711688844264E+00    9.3776636745016493E+00   -3.4916351222645496E+01
N    3.5991190280681544E+00    1.0649344622013832E+01   -3.5220889854072738E+01
N    5.8340015876047229E+00    1.1858956954214742E+01   -3.5242557159252335E+01
N    3.6581329900384563E+00    1.3129701574971897E+01   -3.5432999368033649E+01
N    5.8766048345202027E+00    1.4347889998066078E+01   -3.5438831322015865E+01
B   -6.4978402252248122E+00    1.5672303869923676E+01   -3.5342447239559036E+01
B   -4.3262702155125652E+00    1.6916997096907672E+01   -3.5312086632025888E+01
B   -6.5025032217302678E+00    1.8187667026407443E+01   -3.5212257881281808E+01
B   -4.2571250803399900E+00    1.9452863534560404E+01   -3.4963178782272678E+01
B   -6.4532625418148770E+00    2.0644420016376429E+01   -3.4897298779700058E+01
B   -4.3141606301182405E+00    2.1927804616825622E+01   -3.4779921319682771E+01
B   -6.5225590649964476E+00    2.3205592762715487E+01   -3.4884249045240161E+01
B   -4.2859767210185185E+00    2.4439229000623691E+01   -3.4833461198882652E+01
B   -6.5494983300785128E+00    2.5654923940889066E+01   -3.4980393079490803E+01
B   -4.3914719937276629E+00    2.6937116625679305E+01   -3.4935783654306441E+01
B   -2.0946875079640543E+00    1.5699643901181444E+01   -3.5403753248761340E+01
B    5.2217246317495580E-02    1.6972083802048129E+01   -3.5333769927912009E+01
B   -2.1610491992974414E+00    1.8207192100048442E+01   -3.5157360717976104E+01
B   -5.3387370806026995E-03    1.9465947446158413E+01   -3.5146845063400072E+01
B   -2.1177504101469244E+00    2.0710847473487558E+01   -3.4908417785973263E+01
B    4.7566483266512548E-02    2.1975537828151271E+01   -3.4922658499281717E+01
B   -2.1447325902942129E+00    2.3187939862636526E+01   -3.4764068617519619E+01
B   -1.4075654517004432E-02    2.4471060382338422E+01   -3.4853626440888476E+01
B   -2.1933443066985938E+00    2.5738898774585156E+01   -3.4938646613549196E+01
B    1.0816659955511426E-02    2.6948782127736386E+01   -3.5020394095324619E+01
B    2.1825460856024130E+00    1.5695761695529891E+01   -3.5547494913216653E+01
B    4.3501891319375190E+00    1.6892451520765761E+01   -3.5347379170029050E+01
B    2.2004526949317755E+00    1.8195676578018109E+01   -3.5232794584775121E+01
B    4.4274299297636590E+00    1.9466235678356057E+01   -3.5202946575966998E+01
B    2.2069796293595134E+00    2.0713088693385750E+01   -3.5049900301984010E+01
B    4.4161819850245578E+00    2.1944875855841236E+01   -3.4955085750036744E+01
B    2.2245624849504213E+00    2.3195001378005355E+01   -3.4843014352060166E+01
B    4.4029916062350054E+00    2.4461836911297382E+01   -3.4801143866720224E+01
B    2.2328972434996865E+00    2.5723000425594094E+01   -3.4953521680410262E+01
B    4.3619364662546287E+00    2.6950609917821051E+01   -3.4777536251191414E+01
N   -5.0612878838607438E+00    1.5675966483120147E+01   -3.5514371992322488E+01
N   -2.8395288695545200E+00    1.6962538173843615E+01   -3.5336367420519274E+01
N   -4.9884353863526885E+00    1.8196400729393503E+01   -3.5186106476798301E+01
N   -2.8382243632675057E+00    1.9481086711617845E+01   -3.4950291305256982E+01
N   -5.0439680683700514E+00    2.0693991208139142E+01   -3.4777073187410224E+01
N   -2.8794110600878757E+00    2.1936662580250150E+01   -3.4664729920949398E+01
N   -5.0150910763203660E+00    2.3198703937524609E+01   -3.4818837866556443E+01
N   -2.8744071616358502E+00    2.4442150913303578E+01   -3.4805580716360780E+01
N   -5.1181354681862867E+00    2.5653534893303139E+01   -3.4877151505497075E+01
N   -2.9142456481843442E+00    2.6983342312891189E+01   -3.4986478435038009E+01
N   -6.7180361614595796E-01    1.5742738472520957E+01   -3.5418976504558458E+01
N    1.4909737368117897E+00    1.6957628943369585E+01   -3.5283883060378052E+01
N   -6.9987328148913441E-01    1.8212340883207908E+01   -3.5251213306054488E+01
N    1.4640939887611075E+00    1.9448261449059629E+01   -3.5155138672025068E+01
N   -6.8586423365150972E-01    2.0721923073545554E+01   -3.5050618939827423E+01
N    1.5045286774658513E+00    2.1914352031241723E+01   -3.4990158270519288E+01
N   -6.6932433947245229E-01    2.3225680421225842E+01   -3.4820044708340220E+01
N    1.4974941923408858E+00    2.4439007294430159E+01   -3.4833755611851018E+01
N   -7.2615869696089763E-01    2.5702252568666413E+01   -3.4923972894690387E+01
N    1.4989619967548660E+00    2.6964113333658645E+01   -3.5114891218541416E+01
N    3.6198281222832045E+00    1.5709873472637259E+01   -3.5542674152259103E+01
N    5.8170026855124561E+00    1.6878244281034871E+01   -3.5380532720284698E+01
N    3.6589131126209784E+00    1.8195026168255655E+01   -3.5257091932555348E+01
N    5.8463575647183843E+00    1.9429750333217246E+01   -3.5338264730627891E+01
N    3.6914284298122810E+00    2.0694552902567700E+01   -3.5005327421747047E+01
N    5.8749700273280157E+00    2.1948994360027225E+01   -3.5071314247243713E+01
N    3.6821320425870629E+00    2.3202809649938594E+01   -3.4852212587458801E+01
N    5.8636553410209817E+00    2.4454073261480588E+01   -3.4825915507703485E+01
N    3.6806271286570436E+00    2.5735746131364525E+01   -3.4864842322676751E+01
N    5.8249894652275218E+00    2.6922794122366803E+01   -3.4600271522903491E+01
B    6.4836207577525817E+00    3.0921780741419767E+00   -3.4620843984906109E+01
B    8.6895118335593136E+00    4.3138162255102133E+00   -3.4543180981125012E+01
B    6.5416259414866103E+00    5.5931439671481398E+00   -3.4668008661281689E+01
B    8.6654832024732205E+00    6.8636047624705236E+00   -3.4632035256672317E+01
B    6.5330575859192823E+00    8.1351126031560206E+00   -3.4711649185418530E+01
B    8.7453064086963437E+00    9.3204407670114531E+00   -3.4978656523055975E+01
B    6.5507006160599204E+00    1.0543612433088041E+01   -3.5065699337039078E+01
B    8.6990460584237876E+00    1.1836532221584942E+01   -3.5161433714614027E+01
B    6.5547392261942674E+00    1.3102055029250991E+01   -3.5276743486958367E+01
B    8.6620611682183828E+00    1.4361989226468982E+01   -3.5213959271395254E+01
B    1.0840758712379069E+01    3.0639839741368551E+00   -3.4489475701766459E+01
B    1.3084931049872816E+01    4.3732287793231821E+00   -3.4545929355954229E+01
B    1.0872015080587252E+01    5.5978608028897128E+00   -3.4567198724130584E+01
B    1.3075908995550328E+01    6.8742598915187800E+00   -3.4729754482085966E+01
B    1.0863438031057450E+01    8.0573347135104711E+00   -3.4973943339378003E+01
B    1.3016482368252110E+01    9.3834798230530900E+00   -3.4999338735918144E+01
B    1.0892195486689440E+01    1.0570259927871062E+01   -3.5126842199555796E+01
B    1.3041349730419942E+01    1.1844305186842728E+01   -3.5113446368415921E+01
B    1.0853094092462454E+01    1.3096800852546551E+01   -3.5211497543471936E+01
B    1.3096106166431444E+01    1.4385463836022494E+01   -3.5072714895782532E+01
B    1.5247845649275392E+01    3.0834366720251665E+00   -3.4604347434678353E+01
B    1.7372535312114337E+01    4.3220896865360121E+00   -3.4587069889970373E+01
B    1.5211669815151110E+01    5.6250899392199214E+00   -3.4604851732298172E+01
B    1.7364030004906517E+01    6.8270047943662862E+00   -3.4681774157592805E+01
B    1.5267539599119894E+01    8.1230983316686807E+00   -3.4879521746906157E+01
B    1.7412723522087891E+01    9.3721519414480117E+00   -3.5004637555838393E+01
B    1.5189001853268632E+01    1.0597330262440863E+01   -3.5106207344414926E+01
B    1.7325403864519220E+01    1.1890769566477177E+01   -3.5113499110025344E+01
B    1.5188820024339536E+01    1.3101138660746757E+01   -3.4957154710118886E+01
B    1.7368497035977327E+01    1.4376073237929749E+01   -3.5015163540865416E+01
N    7.9780976638224788E+00    3.1012143886540042E+00   -3.4633632243098567E+01
N    1.0125375197839787E+01    4.3352294770096353E+00   -3.4373415150633761E+01
N    8.0106454353554817E+00    5.5896998830223499E+00   -3.4719901517788657E+01
N    1.0143718727100143E+01    6.8231977187044741E+00   -3.4768190807687546E+01
N    7.9654428980216849E+00    8.1084602985857579E+00   -3.4802331390948410E+01
N    1.0158243648168051E+01    9.2868862511993893E+00   -3.5040397555830104E+01
N    8.0070941181889648E+00    1.0562519640393781E+01   -3.5141678287205067E+01
N    1.0130459290656168E+01    1.1834386653967403E+01   -3.5226615819624492E+01
N    8.0024956191348799E+00    1.3118302460775855E+01   -3.5124788855574486E+01
N    1.0164603631413710E+01    1.4342583556792077E+01   -3.5310215713438595E+01
N    1.2293804773107796E+01    3.1225594907864758E+00   -3.4576500420844653E+01
N    1.4526420023143832E+01    4.3324272696104957E+00   -3.4497016876154333E+01
N    1.2356499998423017E+01    5.6446086691055415E+00   -3.4588125207684762E+01
N    1.4535019688646591E+01    6.8969753726252936E+00   -3.4674020951354770E+01
N    1.2342600379355376E+01    8.0952201234853760E+00   -3.4942355582417626E+01
N    1.4493539048187760E+01    9.3658476216290047E+00   -3.5017983895056858E+01
N    1.2323167677947017E+01    1.0589007699121735E+01   -3.5094969758923540E+01
N    1.4447364788172456E+01    1.1853341821850957E+01   -3.5132117480647899E+01
N    1.2315040924921583E+01    1.3130426705081756E+01   -3.5108334548866083E+01
N    1.4518158310379249E+01    1.4361404763882161E+01   -3.4996421418363340E+01
N    1.6670302483838569E+01    3.0351572400861082E+00   -3.4674086821503089E+01
N    1.8828346898247407E+01    4.3433144825063552E+00   -3.4696422230332310E+01
N    1.6679152688838499E+01    5.6096198465397542E+00   -3.4541203798313113E+01
N    1.8891477505421520E+01    6.8583230415866101E+00   -3.4812140120330263E+01
N    1.6719059234396486E+01    8.1405917133449055E+00   -3.4850371212365438E+01
N    1.8852012432997157E+01    9.3402613642588257E+00   -3.4986150022141800E+01
N    1.6606785544303943E+01    1.0632490189312705E+01   -3.5217072701003389E+01
N    1.8803733076936975E+01    1.1854885640919148E+01   -3.5199623180744439E+01
N    1.6654916430290235E+01    1.3160291490761523E+01   -3.5002157782786227E+01
N    1.8816214752888655E+01    1.4414444543215998E+01   -3.5231984259095441E+01
B    6.5181279335749274E+00    1.5623082507046457E+01   -3.5464157573214720E+01
B    8.7826907028105872E+00    1.6856349083479873E+01   -3.5378629063519874E+01
B    6.6039425999611971E+00    1.8153641885422193E+01   -3.5433555624733167E+01
B    8.7511467594372707E+00    1.9409337862941200E+01   -3.5230202209164034E+01
B    6.6024567269974224E+00    2.0690126222872330E+01   -3.5222290709629249E+01
B    8.7669889051184118E+00    2.1924406298757045E+01   -3.4992018277994909E+01
B    6.6138301669066903E+00    2.3209790106325865E+01   -3.4952527538294994E+01
B    8.7596636864543775E+00    2.4461746616662484E+01   -3.4905835621891775E+01
B    6.5777072790488500E+00    2.5695747401992893E+01   -3.4694539266877179E+01
B    8.7086557052539320E+00    2.6921430312200606E+01   -3.4635265551581625E+01
B    1.0886545474878348E+01    1.5555642690322657E+01   -3.5308805224322803E+01
B    1.3090313036242913E+01    1.6867265009095060E+01   -3.5258488512263035E+01
B    1.0909898323688960E+01    1.8091307850199936E+01   -3.5195498318718009E+01
B    1.3088339959322884E+01    1.9434758609792375E+01   -3.5115608467742419E+01
B    1.0920049053478161E+01    2.0643358856040567E+01   -3.4851817618322649E+01
B    1.3023877145149234E+01    2.1913945151966860E+01   -3.4823800313922796E+01
B    1.0883250495348269E+01    2.3147088070084134E+01   -3.4818595505392096E+01
B    1.3049640852381790E+01    2.4444769439819417E+01   -3.4782001830022118E+01
B    1.0887376726275438E+01    2.5661691525853751E+01   -3.4724171328382809E+01
B    1.3037099862174546E+01    2.6996563637171437E+01   -3.4781610480506423E+01
B    1.5210748700569551E+01    1.5630330079786720E+01   -3.4960920508857200E+01
B    1.7479489042500731E+01    1.6889180499000521E+01   -3.5182705965330491E+01
B    1.5271776388167950E+01    1.8125056022230769E+01   -3.5206645550899701E+01
B    1.7394677629341455E+01    1.9418690101811283E+01   -3.5075090006896922E+01
B    1.5227270016876782E+01    2.0645715918310628E+01   -3.4984961852322570E+01
B    1.7469413970379644E+01    2.1941110755786205E+01   -3.5059315346397433E+01
B    1.5230735621415228E+01    2.3066029583880816E+01   -3.4881335437142432E+01
B    1.7387098702600341E+01    2.4431441812257106E+01   -3.4931722399644819E+01
B    1.5169150543548847E+01    2.5681553762471371E+01   -3.4902151535017460E+01
B    1.7364081249819588E+01    2.6857783573460068E+01   -3.4925721874172417E+01
N    7.9970988529712823E+00    1.5604006864485076E+01   -3.5405209134363318E+01
N    1.0210944252008815E+01    1.6847612785476638E+01   -3.5294595488408781E+01
N    8.0554210425388408E+00    1.8133554689117130E+01   -3.5386521477279146E+01
N    1.0176982639306276E+01    1.9368322426927421E+01   -3.5000411269746408E+01
N    8.0232502686051212E+00    2.0666123125637885E+01   -3.5187331098969295E+01
N    1.0176747934770070E+01    2.1897525454172786E+01   -3.4897524113415464E+01
N    8.0595651581884571E+00    2.3222720783248629E+01   -3.5005645803655511E+01
N    1.0227648748173140E+01    2.4411041137225116E+01   -3.4831367187421762E+01
N    7.9840849117164261E+00    2.5651696539566199E+01   -3.4704447740335482E+01
N    1.0142456952176358E+01    2.6881651992766944E+01   -3.4578009829045854E+01
N    1.2388352424214061E+01    1.5619174295322509E+01   -3.5214425207633219E+01
N    1.4557173217844364E+01    1.6887207723262716E+01   -3.5234172092708945E+01
N    1.2344878344778893E+01    1.8188544725979607E+01   -3.5239789257014209E+01
N    1.4526158214900208E+01    1.9399690415586278E+01   -3.5108931869232897E+01
N    1.2315972511122006E+01    2.0626667968221543E+01   -3.4873220414201391E+01
N    1.4485488677832171E+01    2.1845470229360604E+01   -3.4832919872857310E+01
N    1.2328868257770496E+01    2.3160079414454913E+01   -3.4726636681736359E+01
N    1.4485609525755134E+01    2.4395878081036567E+01   -3.4861747975350220E+01
N    1.2337624465277944E+01    2.5693889035501691E+01   -3.4812045904057200E+01
N    1.4512673917189339E+01    2.6984064160147852E+01   -3.4798524140312594E+01
N    1.6693161322940242E+01    1.5671187445422005E+01   -3.5018624567301153E+01
N    1.8911092177799492E+01    1.6905135087737527E+01   -3.5346971046128907E+01
N    1.6729672253894126E+01    1.8120636729355553E+01   -3.5161680742864448E+01
N    1.8827630288125984E+01    1.9437468032088574E+01   -3.5109578448776936E+01
N    1.6674614869163872E+01    2.0734303443200002E+01   -3.5029918205878715E+01
N    1.8882032870765471E+01    2.1960369145780323E+01   -3.4904811478451279E+01
N    1.6710203988669377E+01    2.3127582199608003E+01   -3.5031515097509363E+01
N    1.8812269979257394E+01    2.4456382795246551E+01   -3.4990112881231504E+01
N    1.6623251808146680E+01    2.5668822875819544E+01   -3.4899490597613031E+01
N    1.8828950332392910E+01    2.6909170392950962E+01   -3.5013711582994901E+01
O   -5.5498583881513781E+01   -1.6448014056238488E+01   -2.6562806537716476E+01
H   -5.4811179101152760E+01   -1.7160779795245588E+01   -2.6373010468034181E+01
H   -5.4918595966019318E+01   -1.5714654241975612E+01   -2.6921236695014080E+01
O   -4.3057556987882705E+01   -4.6132171727821287E+01   -2.2236074741354717E+01
H   -4.3758382030312241E+01   -4.6602788069767293E+01   -2.2662069732530373E+01
H   -4.2968327261424264E+01   -4.6197483020891646E+01   -2.1218492639667126E+01
O   -1.7768386627514026E+01   -8.4964334521443419E+01   -2.4934200457349604E+01
H   -1.8316276763675297E+01   -8.4180898409485650E+01   -2.5061321484366228E+01
H   -1.7974889869729171E+01   -8.5737703627254106E+01   -2.5529029020207247E+01
O    7.9081525739997929E+00   -8.9232084367489946E+01   -2.5125004451245331E+01
H    7.8403573236465984E+00   -8.8523650904256030E+01   -2.5808333319403243E+01
H    7.0405126144461567E+00   -8.9141143399902987E+01   -2.4581645427663034E+01
O   -1.8347192966179527E+01   -8.4734747733133091E+01   -1.9148880043310417E+01
H   -1.7850620824268876E+01   -8.4577956415689911E+01   -1.9916832739585399E+01
H   -1.7958583980060411E+01   -8.5572315587731225E+01   -1.8781885922574450E+01
O   -4.5863688276561881E+01   -2.4369566820522515E+01   -1.7352688434195510E+01
H   -4.5181883458423137E+01   -2.5149816967855148E+01   -1.7230325395497079E+01
H   -4.6872891086197264E+01   -2.4815173237361410E+01   -1.7184426384142984E+01
O   -7.5974881732390401E+01   -7.5078839923718519E+00   -2.7047146130437518E+01
H   -7.6164197760756522E+01   -7.3804969873706838E+00   -2.6105795603369618E+01
H   -7.6721822516724274E+01   -8.0423680522881593E+00   -2.7426040691469698E+01
O   -6.4570806687482602E+01   -2.0812163418309812E+01   -2.3146283731981182E+01
H   -6.4806837829790837E+01   -1.9845953436828502E+01   -2.3143102981840229E+01
H   -6.5331112830137343E+01   -2.1209670060497821E+01   -2.2692980275425892E+01
O    3.2549638805168065E+01   -4.4811333420132897E+01   -2.4336681960166882E+01
H    3.1921315976663966E+01   -4.5233043411252055E+01   -2.3701949479598461E+01
H    3.3038101244220641E+01   -4.5560130709113395E+01   -2.4698559928868377E+01
O   -1.8521140785169088E+01   -2.1625796670879101E+01   -1.7065860655367999E+01
H   -1.9431934025151115E+01   -2.1198774392606950E+01   -1.7084609666417933E+01
H   -1.8882445493839850E+01   -2.2529870696201094E+01   -1.6799169315626479E+01
O    1.7759853583134653E+00   -7.2009213450952046E+01   -2.6838744194397869E+01
H    2.6516593407171523E+00   -7.1894489221968797E+01   -2.6230204030956429E+01
H    1.7325849560234678E+00   -7.1394007241581363E+01   -2.7574489824792586E+01
O   -2.4180594758821044E+01   -7.6940938785846029E+01   -2.9472700306831424E+01
H   -2.4738821906759053E+01   -7.6946480399458594E+01   -3.0287554706213069E+01
H   -2.4514009787362546E+01   -7.6150922238738815E+01   -2.8905891082992522E+01
O   -6.4126644878183088E+00   -5.4711029332792307E+01   -2.5218217901646085E+01
H   -6.0623241078518122E+00   -5.5048542688924755E+01   -2.4337843111484350E+01
H   -7.4542612229584986E+00   -5.4820806953750122E+01   -2.5244197516984205E+01
O   -4.2513369905223392E+01   -1.8484626576117183E+01   -1.8950834475780564E+01
H   -4.2301921612238914E+01   -1.8959365342467578E+01   -1.8148340618461287E+01
H   -4.3375888442540010E+01   -1.8829616896802520E+01   -1.9275531138418195E+01
O   -1.3019127899440283E+01   -6.8823914046953917E+01   -2.9415664636111277E+01
H   -1.2121948031278052E+01   -6.9195250197484938E+01   -2.9652077436170870E+01
H   -1.3200877823807007E+01   -6.9341319779427280E+01   -2.8559966977055311E+01
O   -2.1542149912399289E+01   -5.1224517960074934E+01   -2.2738255169755572E+01
H   -2.2276490966425179E+01   -5.1736882716290921E+01   -2.3096048122418779E+01
H   -2.1488321963830003E+01   -5.0344279605191289E+01   -2.3168910624818913E+01
O    2.7168927565042328E+01   -5.2169792244788269E+01   -2.2372707254829770E+01
H    2.6493009569220511E+01   -5.2853071032804294E+01   -2.2690890864863292E+01
H    2.7808106320366523E+01   -5.2212201266090666E+01   -2.3154640769150948E+01
O   -3.0394422012072255E+01   -7.1167780564622207E-01   -2.4997448080205938E+01
H   -3.0446829171325405E+01   -9.3978359420193958E-01   -2.4032634759539363E+01
H   -3.0602731841836327E+01   -1.6164619605010329E+00   -2.5484019370655965E+01
O    5.0844215543731686E+00   -2.3713534286495619E+01   -2.3960663275948065E+01