 # Version information for this restart file 
 # current date 2019-01-28 05:12:48.159
 # current working dir /scratch/snx3000/gtocci/gtocci/MEMBRANES/AIMD_US_IONS_GRA/potassium/aimd_us_pot/us_11
 # Program compiled at                             Thu Oct 11 21:49:41 CEST 2018
 # Program compiled on                                                  daint104
 # Program compiled for                                   CRAY_XC50-gfortran_gpu
 # Source code revision number                                     git:be74c20a5
 &GLOBAL
   PRINT_LEVEL  LOW
   PROJECT_NAME GRAS
   RUN_TYPE  MD
   WALLTIME 10200
 &END GLOBAL
 &MOTION
   &MD
     ENSEMBLE  NVT
     STEPS  100000
     TIMESTEP     9.9999999999999989E-01
     STEP_START_VAL  41394
     TIME_START_VAL     4.1393999999989726E+04
     ECONS_START_VAL    -8.3207249159021612E+03
     TEMPERATURE     3.0000000000000000E+02
     TEMP_KIND  T
     &BAROSTAT
       PRESSURE     1.0000000000000000E+00
       TIMECON     9.9999999999999986E+01
       VIRIAL  Z
     &END BAROSTAT
     &THERMOSTAT
       TYPE  NOSE
       REGION  GLOBAL
       &NOSE
         LENGTH  4
         TIMECON     9.9999999999999986E+01
         MTS  2
         &COORD
               1.1184012338286087E-01   -4.3165757447861610E+00    1.3631988939268580E+00    2.1240154010690556E+01
         &END COORD
         &VELOCITY
              -5.8856682643178164E-06    1.0071140387814960E-04    2.8255835720333577E-05   -2.7892172717141326E-04
         &END VELOCITY
         &MASS
               7.0145132684705392E+07    1.6237299232570693E+04    1.6237299232570693E+04    1.6237299232570693E+04
         &END MASS
         &FORCE
               1.5668211399794635E-09    9.1139498913917845E-08   -4.8367226978997304E-08   -5.7711621597850587E-08
         &END FORCE
       &END NOSE
     &END THERMOSTAT
     &AVERAGES  T
       &RESTART_AVERAGES
         ITIMES_START  1
         AVECPU     4.6377359734459461E+01
         AVEHUGONIOT     0.0000000000000000E+00
         AVETEMP_BARO     0.0000000000000000E+00
         AVEPOT    -8.3232693540567816E+03
         AVEKIN     2.0525888597198461E+00
         AVETEMP     3.0007200206829884E+02
         AVEKIN_QM     0.0000000000000000E+00
         AVETEMP_QM     0.0000000000000000E+00
         AVEVOL     2.1331414786628052E+05
         AVECELL_A     4.8437460238125148E+01
         AVECELL_B     4.6608961231944782E+01
         AVECELL_C     9.4486306644279480E+01
         AVEALPHA     9.0000000000000057E+01
         AVEBETA     9.0000000000000057E+01
         AVEGAMMA     9.0000000000000057E+01
         AVE_ECONS    -1.7962206094629671E+00
         AVE_PRESS     0.0000000000000000E+00
         AVE_PXX     0.0000000000000000E+00
       &END RESTART_AVERAGES
     &END AVERAGES
     &PRINT
       &TEMP_KIND  SILENT
       &END TEMP_KIND
     &END PRINT
   &END MD
   &FREE_ENERGY
     &METADYN
       MIN_DISP    -1.0000000000000000E+00
       OLD_HILL_NUMBER  0
       OLD_HILL_STEP  0
       DO_HILLS  F
       STEP_START_VAL  41394
       NHILLS_START_VAL  0
       &METAVAR
         SCALE     1.0000000000000000E+00
         COLVAR  1
       &END METAVAR
       &PRINT
         &COLVAR  SILENT
           COMMON_ITERATION_LEVELS  3
           &EACH
             MD  1
           &END EACH
         &END COLVAR
       &END PRINT
     &END METADYN
   &END FREE_ENERGY
   &CONSTRAINT
     &COLLECTIVE
       COLVAR  1
       INTERMOLECULAR  T
       &RESTRAINT
         K     4.4625385281452931E-04
       &END RESTRAINT
     &END COLLECTIVE
     &COLVAR_RESTART
           1.0393493730871038E+01
     &END COLVAR_RESTART
   &END CONSTRAINT
   &PRINT
     &TRAJECTORY  SILENT
       &EACH
         MD  1
       &END EACH
     &END TRAJECTORY
     &VELOCITIES  SILENT
       &EACH
         MD  1
       &END EACH
     &END VELOCITIES
     &FORCES  SILENT
       UNIT eV*angstrom^-1
       &EACH
         MD  1
       &END EACH
     &END FORCES
     &RESTART  SILENT
       &EACH
         MD  1
       &END EACH
     &END RESTART
     &RESTART_HISTORY  SILENT
       &EACH
         MD  100
       &END EACH
     &END RESTART_HISTORY
   &END PRINT
 &END MOTION
 &FORCE_EVAL
   METHOD  QS
   &DFT
     BASIS_SET_FILE_NAME /users/gtocci/scratch_daint_3000/data_cp2k//BASIS_MOLOPT
     POTENTIAL_FILE_NAME /users/gtocci/scratch_daint_3000/data_cp2k//GTH_POTENTIALS
     WFN_RESTART_FILE_NAME ./GRAS-RESTART.wfn
     CHARGE  1
     &SCF
       MAX_SCF  10
       EPS_SCF     9.9999999999999995E-07
       SCF_GUESS  RESTART
       &OT  T
         MINIMIZER  DIIS
         PRECONDITIONER  FULL_KINETIC
       &END OT
       &OUTER_SCF  T
         EPS_SCF     9.9999999999999995E-07
         MAX_SCF  30
       &END OUTER_SCF
       &PRINT
         &RESTART  SILENT
           ADD_LAST  NUMERIC
           &EACH
             QS_SCF  50
           &END EACH
         &END RESTART
       &END PRINT
     &END SCF
     &QS
       MAP_CONSISTENT  T
       EXTRAPOLATION  ASPC
       EXTRAPOLATION_ORDER  4
     &END QS
     &MGRID
       NGRIDS  5
       CUTOFF     4.6000000000000000E+02
     &END MGRID
     &XC
       DENSITY_CUTOFF     1.0000000000000000E-10
       GRADIENT_CUTOFF     1.0000000000000000E-10
       TAU_CUTOFF     1.0000000000000000E-10
       &XC_GRID
         XC_DERIV  SPLINE2_SMOOTH
       &END XC_GRID
       &XC_FUNCTIONAL  NO_SHORTCUT
         &LIBXC  T
           FUNCTIONAL XC_GGA_X_OPTB88_VDW
         &END LIBXC
         &VWN  T
         &END VWN
       &END XC_FUNCTIONAL
       &VDW_POTENTIAL
         POTENTIAL_TYPE  NON_LOCAL
         &NON_LOCAL
           TYPE  DRSLL
           VERBOSE_OUTPUT  T
           KERNEL_FILE_NAME /users/gtocci/scratch_daint_3000/data_cp2k//vdW_kernel_table.dat
         &END NON_LOCAL
       &END VDW_POTENTIAL
     &END XC
     &REAL_TIME_PROPAGATION
       INITIAL_WFN  SCF_WFN
     &END REAL_TIME_PROPAGATION
     &PRINT
       &MULLIKEN  SILENT
         FILENAME =GRAS.mulliken
       &END MULLIKEN
     &END PRINT
   &END DFT
   &SUBSYS
     &CELL
       A     2.5632000000000001E+01    0.0000000000000000E+00    0.0000000000000000E+00
       B     0.0000000000000000E+00    2.4664400000000022E+01    0.0000000000000000E+00
       C     0.0000000000000000E+00    0.0000000000000000E+00    5.0000000000000028E+01
       MULTIPLE_UNIT_CELL  1 1 1
     &END CELL
     &COORD
C    4.4777433262570243E+00    1.2599479463031733E+00    1.1185849436845083E+00
C    5.9239889275710222E+00    1.2784457962326030E+00    1.0752074238092357E+00
C    6.6673406366666041E+00    2.4912466140908829E+00    1.1283620246240769E+00
C    8.0860162787828607E+00    2.4742843734823956E+00    1.2112571760137516E+00
C    4.5692040499496676E+00    3.7005329759336556E+00    1.1686356773059456E+00
C    5.9823567509129347E+00    3.7152213545286119E+00    1.1455142734528081E+00
C    6.6504807127540913E+00    4.9674987868431257E+00    1.1442582309653668E+00
C    8.0969783956757606E+00    4.9647048279724668E+00    1.1476118467608036E+00
C    4.5430616619784265E+00    6.1891463537525206E+00    1.1533238017159075E+00
C    5.9638384212047910E+00    6.2005512625715609E+00    1.0638751422717778E+00
C    6.6739717103958824E+00    7.4235210272594685E+00    9.4146065554950853E-01
C    8.0829967131706528E+00    7.4333906531273497E+00    9.3503098994401213E-01
C    4.5508580199193442E+00    8.6906909136883055E+00    1.0826977847521364E+00
C    5.9635236553543027E+00    8.6680731259886787E+00    9.0335894158751584E-01
C    6.6649607524121848E+00    9.9059298653845325E+00    8.5056851809655332E-01
C    8.0913081821437132E+00    9.9249486833992346E+00    9.3258026555921880E-01
C    4.5337622982773400E+00    1.1166380647767935E+01    1.0633727733006961E+00
C    5.9296011503273016E+00    1.1128984210775528E+01    9.1185732752755333E-01
C    6.6518299662488722E+00    3.5178586251381837E-02    1.1196108411836490E+00
C    8.0658228053509564E+00    4.5540964133803478E-02    1.2458042811188961E+00
C    8.8021366645232337E+00    1.2736226278650322E+00    1.3683118164289063E+00
C    1.0187731375120419E+01    1.2868382797273215E+00    1.4512668948313141E+00
C    1.0907128028840582E+01    2.5245618336247060E+00    1.4458238336352314E+00
C    1.2361940524748537E+01    2.4790771828616740E+00    1.5551227133831647E+00
C    8.8193153106278999E+00    3.7222348419962463E+00    1.1920268642943903E+00
C    1.0207965260983508E+01    3.7288598466975067E+00    1.2488117939105687E+00
C    1.0883784537518265E+01    4.9617577877028261E+00    1.2459600807206612E+00
C    1.2298865018465959E+01    4.9614698884109263E+00    1.3899569242685221E+00
C    8.7707475803289583E+00    6.1804702820294377E+00    1.0511791759180764E+00
C    1.0173437641849738E+01    6.1795055368900220E+00    1.0840906838682265E+00
C    1.0887575804450220E+01    7.4345510919560187E+00    1.0373248245101327E+00
C    1.2318718168504253E+01    7.4247921193620554E+00    1.1875142799741685E+00
C    8.7789866721680383E+00    8.6544550346499296E+00    9.1304878858885763E-01
C    1.0202274456566540E+01    8.6631604661145545E+00    9.9050582404467213E-01
C    1.0933790741769435E+01    9.8763007535475591E+00    1.1318736826535458E+00
C    1.2359806732604037E+01    9.8825428585713819E+00    1.2568239269999439E+00
C    8.8380923645520451E+00    1.1143645286092456E+01    1.0420326543015448E+00
C    1.0228627504826500E+01    1.1113770629686769E+01    1.0742137361371527E+00
C    1.0902898351200196E+01    7.6887713197385341E-02    1.6161815084056890E+00
C    1.2301890155198519E+01    5.7217939011733582E-02    1.7810680356191517E+00
C    1.3041564552968749E+01    1.2809482713610685E+00    1.7516566897117167E+00
C    1.4473219667299764E+01    1.2381796254289508E+00    1.7453259019723883E+00
C    1.5158235599614573E+01    2.4957482768911383E+00    1.7158911269301818E+00
C    1.6609937392662086E+01    2.5005912344089296E+00    1.6791056166446277E+00
C    1.3018736412300912E+01    3.7133232145646837E+00    1.5188607418731497E+00
C    1.4418910515523441E+01    3.7256175255932367E+00    1.6674870596405806E+00
C    1.5106451312498010E+01    4.9980340418798814E+00    1.6528409787259251E+00
C    1.6568711783420003E+01    4.9922976956999037E+00    1.6581222980504844E+00
C    1.3016650855513300E+01    6.1900398046150169E+00    1.3500318902680002E+00
C    1.4415490585899413E+01    6.2178451864405222E+00    1.5693874609307743E+00
C    1.5167338511222098E+01    7.4388760662431253E+00    1.6012221760506948E+00
C    1.6592129583357607E+01    7.4323228726621009E+00    1.7164653671778440E+00
C    1.3062206653931851E+01    8.6305410054976939E+00    1.3547729046741948E+00
C    1.4463186557469644E+01    8.6680845220926575E+00    1.5624817595116891E+00
C    1.5155622069779710E+01    9.8945992964733289E+00    1.6168710816868104E+00
C    1.6572282242274557E+01    9.9141283572117835E+00    1.6986539795942892E+00
C    1.3019555101472879E+01    1.1123907729859088E+01    1.3020938955162784E+00
C    1.4437891645209374E+01    1.1160066078206354E+01    1.5606055475887055E+00
C    1.5199128202356158E+01    2.2667418862006385E-02    1.6079794514969699E+00
C    1.6594771328752927E+01    1.8255827627464926E-02    1.4491078962217767E+00
C    4.5592694383442289E+00    1.3592339652061836E+01    1.0004648527799449E+00
C    5.9618131306682782E+00    1.3601953919189702E+01    8.9688484823165193E-01
C    6.6541574496020015E+00    1.4830418967539815E+01    9.3730912469487793E-01
C    8.0638987555612722E+00    1.4871207384133001E+01    9.9543407365545067E-01
C    4.5155950494611448E+00    1.6048985663845627E+01    1.0950184760898969E+00
C    5.9551953110732168E+00    1.6063400856771636E+01    1.0677600459567940E+00
C    6.6456087840832962E+00    1.7315098780965176E+01    1.1404394478132811E+00
C    8.0562983663494752E+00    1.7359309444322982E+01    1.0999366527525996E+00
C    4.4897582689885427E+00    1.8534251079933075E+01    1.2479698774371448E+00
C    5.9204681722558687E+00    1.8545014770137712E+01    1.2772567946056625E+00
C    6.5964920366393835E+00    1.9779869842412054E+01    1.4391523298277207E+00
C    8.0207092511661031E+00    1.9790185542957019E+01    1.4254782003703550E+00
C    4.4436321136341626E+00    2.1017292865968809E+01    1.3377450235779902E+00
C    5.8740193809685239E+00    2.1017297892358055E+01    1.4543027065188676E+00
C    6.5740429747868605E+00    2.2261132088400476E+01    1.3671574433186091E+00
C    8.0156911602519880E+00    2.2283846998039792E+01    1.4109830198236151E+00
C    4.4746503709263044E+00    2.3454626220582011E+01    1.2090965319377074E+00
C    5.8993030304619394E+00    2.3496218511539965E+01    1.2169946080524825E+00
C    6.6803450114183267E+00    1.2373274593432839E+01    8.6406944303513855E-01
C    8.0898682755809492E+00    1.2386767348843517E+01    9.2254737284677724E-01
C    8.8037163412094088E+00    1.3633008806315207E+01    9.6552448369360822E-01
C    1.0208376904603131E+01    1.3624877968395005E+01    1.0422792753505898E+00
C    1.0877567763574802E+01    1.4847473015433163E+01    1.1874119457714105E+00
C    1.2311261964536845E+01    1.4847478418852253E+01    1.2558164629199060E+00
C    8.7728598912768447E+00    1.6127105234031649E+01    1.0124224516821207E+00
C    1.0181523267858394E+01    1.6082044598203982E+01    1.1801888891426651E+00
C    1.0925143776536729E+01    1.7296257895930275E+01    1.2240391770894743E+00
C    1.2361153310990865E+01    1.7314369263518071E+01    1.3732136522457745E+00
C    8.7669634912903014E+00    1.8620160564062356E+01    1.2183715603300713E+00
C    1.0200543352319224E+01    1.8565864840387359E+01    1.2108873021661020E+00
C    1.0899617104351412E+01    1.9811665634903314E+01    1.4344154166889602E+00
C    1.2360031980987639E+01    1.9807834475144197E+01    1.4858170006981462E+00
C    8.7179637871636189E+00    2.1060099747727669E+01    1.5412845444589705E+00
C    1.0179846456439867E+01    2.1062853593647510E+01    1.4874892312124208E+00
C    1.0922726268169376E+01    2.2287037171489320E+01    1.5016952881315067E+00
C    1.2334191900486058E+01    2.2265787257620680E+01    1.5603589272292147E+00
C    8.7769375153044074E+00    2.3487727591369449E+01    1.4055638596784228E+00
C    1.0226584341261569E+01    2.3511975714947653E+01    1.4927836563183565E+00
C    1.0945339851412552E+01    1.2364679317608045E+01    1.0349314384330692E+00
C    1.2362124294635475E+01    1.2360145449405797E+01    1.1634525988999735E+00
C    1.3024585677661177E+01    1.3589622442294996E+01    1.2954867865116317E+00
C    1.4454109023176779E+01    1.3566066994111015E+01    1.4089458679725029E+00
C    1.5172666086867185E+01    1.4786974918883777E+01    1.5308079786000293E+00
C    1.6587522207044181E+01    1.4814112630230477E+01    1.6781585795334659E+00
C    1.3045701680235839E+01    1.6070228968630300E+01    1.4327858287951745E+00
C    1.4456203686094057E+01    1.6033614981078898E+01    1.5293531182624718E+00
C    1.5188131250718328E+01    1.7247747700450144E+01    1.6019268155877471E+00
C    1.6586324498305377E+01    1.7219977862713225E+01    1.6603031380773590E+00
C    1.3048130662366724E+01    1.8569356837697409E+01    1.5005789212049843E+00
C    1.4446003125820972E+01    1.8531272232347771E+01    1.5496786383319872E+00
C    1.5185602728937798E+01    1.9777114735517227E+01    1.6111834321131087E+00
C    1.6586490532947671E+01    1.9755641797323751E+01    1.5320111450352909E+00
C    1.3022617840500807E+01    2.1053160467221776E+01    1.4984500965731888E+00
C    1.4461851887547047E+01    2.1007619306683196E+01    1.5947750944130354E+00
C    1.5169860284623516E+01    2.2228063413444097E+01    1.5523901027892559E+00
C    1.6588453635926381E+01    2.2223298603460162E+01    1.5352974466044407E+00
C    1.3046135152387237E+01    2.3510124749981717E+01    1.6428863264155016E+00
C    1.4462756417544442E+01    2.3479003949240145E+01    1.6224831254209491E+00
C    1.5166876074485497E+01    1.2356399528188867E+01    1.6106315969601452E+00
C    1.6586458313684119E+01    1.2319990724648592E+01    1.6734697570419359E+00
C    1.7320880682440620E+01    1.2802495020091651E+00    1.5203771358344400E+00
C    1.8729872231989628E+01    1.2528560152955839E+00    1.5503646826364137E+00
C    1.9416694235888937E+01    2.4832894676387336E+00    1.6365236032523178E+00
C    2.0860614272813649E+01    2.4107744336854289E+00    1.7704668330688000E+00
C    1.7271697741260748E+01    3.7724345600459754E+00    1.6141218576682246E+00
C    1.8733550115740520E+01    3.7512635897737914E+00    1.7059278764267329E+00
C    1.9450464451201260E+01    4.9854945626427138E+00    1.6706073381552469E+00
C    2.0891230582608507E+01    4.9630794530687874E+00    1.6748360929867101E+00
C    1.7255862808251131E+01    6.2151648059739939E+00    1.6616272876617615E+00
C    1.8722095628340504E+01    6.2159100712278788E+00    1.6953444066408641E+00
C    1.9470075484780505E+01    7.4598919589838726E+00    1.7838798871418453E+00
C    2.0895360283926113E+01    7.4369305630352542E+00    1.7644493341492884E+00
C    1.7325372947301535E+01    8.6662441573618842E+00    1.7749633932105735E+00
C    1.8731356961359353E+01    8.7082161788266852E+00    1.7905745110848330E+00
C    1.9407158026649054E+01    9.9220047441894828E+00    1.6556630127575365E+00
C    2.0859903940833618E+01    9.9144610033714553E+00    1.6764996990143870E+00
C    1.7281710617020700E+01    1.1132164515248480E+01    1.6424533019681480E+00
C    1.8702989930746114E+01    1.1130189987601467E+01    1.5519106975427583E+00
C    1.9436551694210831E+01    1.0661794143118066E-02    1.5643745852654951E+00
C    2.0847688763785442E+01   -1.4627391549549427E-02    1.5714255658765794E+00
C    2.1557827210250814E+01    1.1931780377587644E+00    1.8109121215350752E+00
C    2.3013527992617487E+01    1.2474782516212393E+00    1.8031923759721322E+00
C    2.3715898830546941E+01    2.4984339222213174E+00    1.8145262853523143E+00
C    2.5137124394549151E+01    2.5455857909018107E+00    1.6222734084291506E+00
C    2.1564590507831578E+01    3.6841572414345971E+00    1.7259877493512901E+00
C    2.3001249724966840E+01    3.7257227440431029E+00    1.7136417167953537E+00
C    2.3774560620339436E+01    4.9530279679509110E+00    1.5531560970456093E+00
C    2.5201468419378507E+01    4.9727868466490666E+00    1.5251565277398718E+00
C    2.1616948516119429E+01    6.2005366618723929E+00    1.6860505875409757E+00
C    2.3034014129592137E+01    6.2005686907920374E+00    1.5952562376068220E+00
C    2.3721025953140902E+01    7.4377345472531164E+00    1.5914634087363122E+00
C    2.5148145547422981E+01    7.4860406870730287E+00    1.5586479402325093E+00
C    2.1599220325075702E+01    8.6791162934253201E+00    1.7864689272581200E+00
C    2.3006478587124001E+01    8.6853267324688588E+00    1.6793062562173362E+00
C    2.3732041903274283E+01    9.9466882369941914E+00    1.5145719547419361E+00
C    2.5138074645422272E+01    9.9164173068499739E+00    1.3498174490626540E+00
C    2.1599518290806142E+01    1.1125974907620199E+01    1.5207320726883069E+00
C    2.3038494997235890E+01    1.1158783493907530E+01    1.3858071640791134E+00
C    2.3689948508995858E+01    1.2325420152980573E-02    1.6466202854321843E+00
C    2.5118851974637820E+01    2.3731992897889898E-02    1.5083736668112633E+00
C    2.5831838998641590E+01    1.2828047716416455E+00    1.5060183675042225E+00
C    2.7234159246188618E+01    1.2852493227612332E+00    1.3072560662145751E+00
C    2.8005512077791352E+01    2.4813125414508219E+00    1.2253560403821755E+00
C    2.9440508375935917E+01    2.5011610637162556E+00    1.1205210405805031E+00
C    2.5907484617110367E+01    3.7255348516569513E+00    1.4689875693028984E+00
C    2.7328022921571904E+01    3.7392073787441849E+00    1.3932646807927636E+00
C    2.8051736763254329E+01    4.9680490096779915E+00    1.3382025090740668E+00
C    2.9487909990526404E+01    4.9721445551150447E+00    1.2026597280022446E+00
C    2.5869296576095969E+01    6.2438649932759915E+00    1.4936855489671250E+00
C    2.7319297008273626E+01    6.2333876646093644E+00    1.4205772684930618E+00
C    2.8036242137927815E+01    7.4214445425808346E+00    1.3434502079215054E+00
C    2.9482626093764114E+01    7.4281045350403749E+00    1.1975654538620946E+00
C    2.5899751239590039E+01    8.7096146875314790E+00    1.4558340335312761E+00
C    2.7335954389417871E+01    8.6764970193629072E+00    1.3978378220153012E+00
C    2.8052665864300181E+01    9.9302755459859231E+00    1.2908759062283015E+00
C    2.9448258487152895E+01    9.9598947994057507E+00    1.1449640170069977E+00
C    2.5886859984986355E+01    1.1150108043180598E+01    1.2961038822090922E+00
C    2.7318248251074689E+01    1.1141830926361896E+01    1.2104143219891199E+00
C    2.7939098649203483E+01    1.9115322751649837E-02    1.1633082735312346E+00
C    2.9372647203600678E+01    3.2761797813830575E-02    1.1866139572308085E+00
C    1.7276591055709243E+01    1.3587945708620655E+01    1.6011840970117166E+00
C    1.8698841892298375E+01    1.3561046029091571E+01    1.4052012804062561E+00
C    1.9407990697306225E+01    1.4793839057535195E+01    1.4575755589059596E+00
C    2.0876514486952274E+01    1.4798928562850627E+01    1.4417844941788258E+00
C    1.7305854563296691E+01    1.6038790106510067E+01    1.7103242316644809E+00
C    1.8746557622137811E+01    1.6003406754292506E+01    1.6077758445255035E+00
C    1.9482554807707874E+01    1.7244145542531118E+01    1.4938603794325198E+00
C    2.0868385793945237E+01    1.7274047030220487E+01    1.4032733734510441E+00
C    1.7284353301171191E+01    1.8510800855041630E+01    1.5586084555183077E+00
C    1.8727413759864358E+01    1.8494878086701927E+01    1.4843223746262404E+00
C    1.9445566258035246E+01    1.9757223579435685E+01    1.5585513572349754E+00
C    2.0869037995873082E+01    1.9702858397793833E+01    1.4810615819897457E+00
C    1.7316280928997962E+01    2.0982994566218775E+01    1.6091874929478545E+00
C    1.8765798643165159E+01    2.0963517294351451E+01    1.6743530696548452E+00
C    1.9455206083747186E+01    2.2208737823247251E+01    1.6439761842979803E+00
C    2.0907176214589867E+01    2.2175399610898577E+01    1.5805300798042383E+00
C    1.7306992735258088E+01    2.3428927148278653E+01    1.4535917491001826E+00
C    1.8722425374260371E+01    2.3424021648948706E+01    1.5257617197347777E+00
C    1.9422128736060969E+01    1.2341745944888453E+01    1.3899885870463096E+00
C    2.0853301436914009E+01    1.2314540707718331E+01    1.4423516589592140E+00
C    2.1577184971945524E+01    1.3560605367484847E+01    1.3941583373632216E+00
C    2.2982562418439617E+01    1.3571722115384176E+01    1.2819948205267457E+00
C    2.3697588806111337E+01    1.4827821102869793E+01    1.2567380053569381E+00
C    2.5137112271604948E+01    1.4843932814800056E+01    1.3436705922240533E+00
C    2.1575660851448365E+01    1.6049058434975453E+01    1.4050977453093310E+00
C    2.2955191032004773E+01    1.6035699587653287E+01    1.1956821359951435E+00
C    2.3700481373120972E+01    1.7286653968285663E+01    1.1224073434090256E+00
C    2.5144110563403363E+01    1.7256077652399163E+01    1.1668820556676101E+00
C    2.1577123672932768E+01    1.8500264091913472E+01    1.3680102788376005E+00
C    2.2995063649295151E+01    1.8500120328147602E+01    1.2413421859735041E+00
C    2.3737040642824116E+01    1.9699262053831674E+01    1.3332568516355019E+00
C    2.5159411541966495E+01    1.9699927528588027E+01    1.3855102119996043E+00
C    2.1590657425014520E+01    2.0926532267869572E+01    1.5681918436912619E+00
C    2.3015517253878198E+01    2.0921638949961871E+01    1.5212137185685530E+00
C    2.3697854561351697E+01    2.2197601364660738E+01    1.5735708088514715E+00
C    2.5106624776334254E+01    2.2159095669341138E+01    1.4556679104176462E+00
C    2.1567392484902651E+01    2.3395150052270921E+01    1.5658549522639218E+00
C    2.2970066951133457E+01    2.3437749585657656E+01    1.6017683683664492E+00
C    2.3719195958154316E+01    1.2397316027511170E+01    1.3051648884889386E+00
C    2.5180277660199962E+01    1.2398658058422319E+01    1.2849483372393848E+00
C    2.5861658630351172E+01    1.3644464805586985E+01    1.3619132399072194E+00
C    2.7302167839766206E+01    1.3629207185636112E+01    1.2209420493618350E+00
C    2.8028097126008046E+01    1.4837694814530652E+01    1.1500471234731884E+00
C    2.9430928333857185E+01    1.4807435758911780E+01    1.0519584077916859E+00
C    2.5803380783031596E+01    1.6050080629176335E+01    1.2185346877338408E+00
C    2.7277674995020856E+01    1.6074451191857104E+01    1.1735258392721479E+00
C    2.7999744712427713E+01    1.7313490353671121E+01    1.2166800682636596E+00
C    2.9422017286279299E+01    1.7301706616716697E+01    1.2124611773152942E+00
C    2.5870550374536624E+01    1.8465423291059956E+01    1.2174393727248751E+00
C    2.7287023500557428E+01    1.8511944633854768E+01    1.3301162196880361E+00
C    2.8011171333269264E+01    1.9729605904957509E+01    1.4202542784187213E+00
C    2.9408983219394500E+01    1.9756839904223657E+01    1.3406807685064535E+00
C    2.5842306214026610E+01    2.0930110624291615E+01    1.4813575156521988E+00
C    2.7247627944777083E+01    2.0949105629470964E+01    1.3637673263294225E+00
C    2.7910310739698431E+01    2.2208632409804846E+01    1.3225227669698965E+00
C    2.9391238776387823E+01    2.2245257714619321E+01    1.2729859869121458E+00
C    2.5797719894501615E+01    2.3437911248195626E+01    1.3920102984215328E+00
C    2.7234476880933194E+01    2.3459130073900546E+01    1.3106780059212693E+00
C    2.8021091406154500E+01    1.2363195486787371E+01    1.1791126456168997E+00
C    2.9450867633362730E+01    1.2394734321327610E+01    1.0578630730340335E+00
O    4.4299209051203053E+02    2.3914819391128279E+02    6.9390779395814493E+00
H    4.4325424646675663E+02    2.3934974327521434E+02    7.8563998065800753E+00
H    4.4381968862852011E+02    2.3893213675895132E+02    6.5544934595896205E+00
O    3.3352585749902318E+02    2.2088993101087644E+02    1.6284510471892482E+01
H    3.3440947569118521E+02    2.2119682527006165E+02    1.6459758440612553E+01
H    3.3366037362694351E+02    2.1998946985233940E+02    1.5822688876979280E+01
O    2.9192836410740881E+02    2.9935452566154476E+02    1.2539337528899242E+01
H    2.9250309863099818E+02    2.9993315469248398E+02    1.3110158929852505E+01
H    2.9224571590406021E+02    2.9843207890096579E+02    1.2708918733108462E+01
O    4.4007601037122811E+02    2.8564095454057878E+02    8.6414999823352332E+00
H    4.3985101064360214E+02    2.8481570839269767E+02    9.1482300894369626E+00
H    4.3920199850481856E+02    2.8575722656054563E+02    8.1701249068183603E+00
O    2.9412286382102650E+02    3.2129910792044097E+02    9.8527763136881337E+00
H    2.9491330001741369E+02    3.2170632038723312E+02    1.0221105035963360E+01
H    2.9363955769492793E+02    3.2074922067370323E+02    1.0581601577174069E+01
O    2.9081033369743295E+02    2.8767567832058285E+02    4.6209398435114206E+00
H    2.9160190672541211E+02    2.8707763391481598E+02    4.6670242499832622E+00
H    2.9013362620755800E+02    2.8711796817867315E+02    4.2105971920901144E+00
O    3.5334537034942014E+02    3.3760657720103393E+02    1.6230077732306071E+01
H    3.5357292295955585E+02    3.3716846022105869E+02    1.7059890131475534E+01
H    3.5385956494378701E+02    3.3691191973280144E+02    1.5681160004858130E+01
O    2.8297554639997594E+02    2.0351327858557386E+02    1.9916771771708763E+01
H    2.8310051793492141E+02    2.0446059092861182E+02    1.9833053154426064E+01
H    2.8252931972231028E+02    2.0314693364318887E+02    1.9117808801716063E+01
O    2.6524959208323622E+02    4.0376158294906571E+02    1.6008511913098598E+01
H    2.6439052512320723E+02    4.0390884998901959E+02    1.6469177454609564E+01
H    2.6549506838626900E+02    4.0470490005472521E+02    1.5711014550685553E+01
O    4.2174816617484709E+02    3.2369635583645351E+02    1.6335865654750684E+01
H    4.2249941773362809E+02    3.2415036005742900E+02    1.6805051099235133E+01
H    4.2087442536199575E+02    3.2384099078509047E+02    1.6872371375938002E+01
O    3.3188932262200581E+02    3.0872411731604063E+02    7.1476614450626315E+00
H    3.3206298099906962E+02    3.0871432116290265E+02    6.2260312857526561E+00
H    3.3176861319051909E+02    3.0782329072641420E+02    7.4085064864448285E+00
O    3.3567313027489320E+02    3.0756245930472693E+02    2.0115227396461197E+01
H    3.3522409081100841E+02    3.0827776680195484E+02    1.9641795722745002E+01
H    3.3658120631414050E+02    3.0780230396802051E+02    2.0255635262580437E+01
O    3.5929084343386779E+02    2.2091399615586315E+02    1.1329199003276758E+01
H    3.5969687472691123E+02    2.2016683961886966E+02    1.1909409461332318E+01
H    3.5833746157068839E+02    2.2076870638833753E+02    1.1334404641455661E+01
O    4.2270765860475336E+02    1.2500169202797257E+02    5.2298692385419709E+00
H    4.2236014114473619E+02    1.2450147841696672E+02    6.0227614009182906E+00
H    4.2262183269699028E+02    1.2427341275192596E+02    4.5391714619465136E+00
O    2.8697788068605655E+02    4.2814209203828136E+02    1.3529835217045347E+01
H    2.8611999619553114E+02    4.2802670943904099E+02    1.3192892129495961E+01
H    2.8760416468784592E+02    4.2803859073536898E+02    1.2765733883173517E+01
O    2.9734140790694477E+02    3.6964353883063040E+02    7.4692461445765961E+00
H    2.9810627377470098E+02    3.6896912303967656E+02    7.5428985952030807E+00
H    2.9722939621359393E+02    3.6975788748259464E+02    6.4918817529171156E+00
O    3.2104966642817044E+02    2.9475713881487638E+02    1.4969633030788872E+01
H    3.2118092430099784E+02    2.9400118131168153E+02    1.5482167471869403E+01
H    3.2176236368005783E+02    2.9493721707796647E+02    1.4318253956515900E+01
O    2.7178443780000674E+02    2.7929908930030876E+02    1.7139697247080118E+01
H    2.7149167718448672E+02    2.7938604213228780E+02    1.6204121008744600E+01
H    2.7195029559173457E+02    2.7839701700031543E+02    1.7394948494570880E+01
O    3.2802763536784880E+02    3.3152570859001287E+02    1.0265700798087034E+01
H    3.2825963293781166E+02    3.3089099685598876E+02    9.6129837670917428E+00