 # Version information for this restart file 
 # current date 2020-04-18 08:11:39.389
 # current working dir /scratch/snx3000/gtocci/gtocci/MEMBRANES/AIMD_US_IONS_GRA/us_aimd_new/us_8
 # Program compiled at                              Fri Nov 22 15:19:42 CET 2019
 # Program compiled on                                                  daint102
 # Program compiled for                                   CRAY_XC50-gfortran_gpu
 # Source code revision number                                       git:a698b45
 &GLOBAL
   PRINT_LEVEL  LOW
   PROJECT_NAME GRAS
   RUN_TYPE  MD
   WALLTIME 86400
 &END GLOBAL
 &MOTION
   &MD
     ENSEMBLE  NVT
     STEPS  2000
     TIMESTEP     9.9999999999999989E-01
     STEP_START_VAL  71921
     TIME_START_VAL     7.1920999999942869E+04
     ECONS_START_VAL    -8.3040112462184352E+03
     TEMPERATURE     3.0000000000000000E+02
     TEMP_KIND  T
     &BAROSTAT
       PRESSURE     1.0000000000000000E+00
       TIMECON     9.9999999999999986E+01
       VIRIAL  Z
     &END BAROSTAT
     &THERMOSTAT
       TYPE  NOSE
       REGION  GLOBAL
       &NOSE
         LENGTH  4
         TIMECON     9.9999999999999986E+01
         MTS  2
         &COORD
               1.1706926505581647E-01    5.4973108163041260E+01   -6.8530307895668929E-01   -2.7295574395410803E+01
         &END COORD
         &VELOCITY
              -2.8373493244951862E-06    8.6734051471910233E-07   -1.0156419372550622E-04   -4.3517184825288898E-04
         &END VELOCITY
         &MASS
               7.0145132684705392E+07    1.6237299232570693E+04    1.6237299232570693E+04    1.6237299232570693E+04
         &END MASS
         &FORCE
              -2.7571675559437665E-10   -2.3731632712703659E-08   -5.8509261570536596E-08   -4.8194728402992913E-08
         &END FORCE
       &END NOSE
     &END THERMOSTAT
     &AVERAGES  T
       &RESTART_AVERAGES
         ITIMES_START  1
         AVECPU     3.1295762566753520E+01
         AVEHUGONIOT     0.0000000000000000E+00
         AVETEMP_BARO     0.0000000000000000E+00
         AVEPOT    -8.3065702032160425E+03
         AVEKIN     2.0497469083379709E+00
         AVETEMP     2.9965653160673918E+02
         AVEKIN_QM     0.0000000000000000E+00
         AVETEMP_QM     0.0000000000000000E+00
         AVEVOL     2.1331414786626332E+05
         AVECELL_A     4.8437460238123727E+01
         AVECELL_B     4.6608961231948342E+01
         AVECELL_C     9.4486306644281314E+01
         AVEALPHA     9.0000000000000071E+01
         AVEBETA     9.0000000000000071E+01
         AVEGAMMA     9.0000000000000071E+01
         AVE_ECONS     1.7468278507327435E+00
         AVE_PRESS     0.0000000000000000E+00
         AVE_PXX     0.0000000000000000E+00
       &END RESTART_AVERAGES
     &END AVERAGES
     &PRINT
       &TEMP_KIND  SILENT
       &END TEMP_KIND
     &END PRINT
   &END MD
   &FREE_ENERGY
     &METADYN
       MIN_DISP    -1.0000000000000000E+00
       OLD_HILL_NUMBER  0
       OLD_HILL_STEP  0
       DO_HILLS  F
       STEP_START_VAL  71921
       NHILLS_START_VAL  0
       &METAVAR
         SCALE     1.0000000000000000E+00
         COLVAR  1
       &END METAVAR
       &PRINT
         &COLVAR  SILENT
           COMMON_ITERATION_LEVELS  3
           &EACH
             MD  1
           &END EACH
         &END COLVAR
       &END PRINT
     &END METADYN
   &END FREE_ENERGY
   &CONSTRAINT
     &COLLECTIVE
       COLVAR  1
       INTERMOLECULAR  T
       &RESTRAINT
         K     4.4625385281452931E-04
       &END RESTRAINT
     &END COLLECTIVE
     &COLVAR_RESTART
           7.5589045315425745E+00
     &END COLVAR_RESTART
   &END CONSTRAINT
   &PRINT
     &TRAJECTORY  SILENT
       &EACH
         MD  1
       &END EACH
     &END TRAJECTORY
     &VELOCITIES  SILENT
       &EACH
         MD  1
       &END EACH
     &END VELOCITIES
     &FORCES  SILENT
       UNIT eV*angstrom^-1
       &EACH
         MD  1
       &END EACH
     &END FORCES
     &RESTART  SILENT
       &EACH
         MD  1
       &END EACH
     &END RESTART
     &RESTART_HISTORY  SILENT
       &EACH
         MD  100
       &END EACH
     &END RESTART_HISTORY
   &END PRINT
 &END MOTION
 &FORCE_EVAL
   METHOD  QS
   &DFT
     BASIS_SET_FILE_NAME /users/gtocci/scratch_daint_3000/data_cp2k//BASIS_MOLOPT
     POTENTIAL_FILE_NAME /users/gtocci/scratch_daint_3000/data_cp2k//GTH_POTENTIALS
     WFN_RESTART_FILE_NAME ./GRAS-RESTART.wfn
     CHARGE  -1
     &SCF
       MAX_SCF  10
       EPS_SCF     9.9999999999999995E-07
       SCF_GUESS  RESTART
       &OT  T
         MINIMIZER  DIIS
         PRECONDITIONER  FULL_KINETIC
       &END OT
       &OUTER_SCF  T
         EPS_SCF     9.9999999999999995E-07
         MAX_SCF  30
       &END OUTER_SCF
       &PRINT
         &RESTART  SILENT
           ADD_LAST  NUMERIC
           &EACH
             QS_SCF  50
           &END EACH
         &END RESTART
       &END PRINT
     &END SCF
     &QS
       MAP_CONSISTENT  T
       EXTRAPOLATION  ASPC
       EXTRAPOLATION_ORDER  4
     &END QS
     &MGRID
       NGRIDS  5
       CUTOFF     4.6000000000000000E+02
     &END MGRID
     &XC
       DENSITY_CUTOFF     1.0000000000000000E-10
       GRADIENT_CUTOFF     1.0000000000000000E-10
       TAU_CUTOFF     1.0000000000000000E-10
       &XC_GRID
         XC_DERIV  SPLINE2_SMOOTH
       &END XC_GRID
       &XC_FUNCTIONAL  NO_SHORTCUT
         &LIBXC  T
           FUNCTIONAL XC_GGA_X_OPTB88_VDW
         &END LIBXC
         &VWN  T
         &END VWN
       &END XC_FUNCTIONAL
       &VDW_POTENTIAL
         POTENTIAL_TYPE  NON_LOCAL
         &NON_LOCAL
           TYPE  DRSLL
           VERBOSE_OUTPUT  T
           KERNEL_FILE_NAME /users/gtocci/scratch_daint_3000/data_cp2k//vdW_kernel_table.dat
         &END NON_LOCAL
       &END VDW_POTENTIAL
     &END XC
     &REAL_TIME_PROPAGATION
       INITIAL_WFN  SCF_WFN
     &END REAL_TIME_PROPAGATION
     &PRINT
       &MULLIKEN  SILENT
         FILENAME =GRAS.mulliken
       &END MULLIKEN
     &END PRINT
   &END DFT
   &SUBSYS
     &CELL
       A     2.5632000000000001E+01    0.0000000000000000E+00    0.0000000000000000E+00
       B     0.0000000000000000E+00    2.4664400000000022E+01    0.0000000000000000E+00
       C     0.0000000000000000E+00    0.0000000000000000E+00    5.0000000000000028E+01
       MULTIPLE_UNIT_CELL  1 1 1
     &END CELL
     &COORD
C    3.6898656785961923E+00    2.2244300636897549E+01    4.9165233082456827E-01
C    5.1427342184328770E+00    2.2212528675810379E+01    5.7447217108426374E-01
C    5.8682589261520830E+00    2.3465451304377797E+01    4.3783427623784738E-01
C    7.3028013421955951E+00    2.3451660995327810E+01    5.2040454351532761E-01
C    3.7414353406984029E+00    2.4736027376602731E+01    4.0466228778905594E-01
C    5.1770089151591705E+00    2.4717022658044328E+01    4.4199767408858498E-01
C    5.8800153161842781E+00    2.5940283545945903E+01    4.6975325810042223E-01
C    7.3093618902014441E+00    2.5965382255497079E+01    4.4931130607529662E-01
C    3.7385509327981890E+00    2.7184485782243456E+01    3.6899129885818260E-01
C    5.1623731114385505E+00    2.7144673047157770E+01    3.7837438703288268E-01
C    5.8819423367228492E+00    2.8368434802627743E+01    2.7646213396692149E-01
C    7.2992694819080146E+00    2.8398123949430772E+01    3.1383057112071439E-01
C    3.7063373607854513E+00    2.9627466210940629E+01    3.4764327466334133E-01
C    5.1681972044652866E+00    2.9655900297530398E+01    2.3038492740957703E-01
C    5.8404843844303160E+00    3.0868723447690950E+01    2.4178683503010046E-01
C    7.2846621680867338E+00    3.0866721081286123E+01    2.5241747741988307E-01
C    3.7134385754202337E+00    3.2093730400332248E+01    3.2330972145598669E-01
C    5.1751862370077326E+00    3.2102872897987559E+01    3.4196813811040150E-01
C    5.8419435485981310E+00    2.1007283464174524E+01    7.4412775494155281E-01
C    7.2535154838087692E+00    2.1003354974869200E+01    7.9233692230890274E-01
C    7.9831639883216550E+00    2.2207401680398988E+01    5.6068103338193731E-01
C    9.4505264040709882E+00    2.2239137528393087E+01    6.0631433230702148E-01
C    1.0158371349964312E+01    2.3517617352141116E+01    5.8849896633625853E-01
C    1.1565662198304762E+01    2.3533527858549554E+01    5.3396236161861144E-01
C    8.0214548092801365E+00    2.4722068984029310E+01    4.8022708695176275E-01
C    9.4340712010605348E+00    2.4740602261703291E+01    5.5979768123115714E-01
C    1.0145822081353504E+01    2.5988527946094411E+01    4.7348621770301508E-01
C    1.1590030924500395E+01    2.5967449529812740E+01    4.3909718274659404E-01
C    8.0114542822824113E+00    2.7191429560362845E+01    3.3813404993548757E-01
C    9.4870065767735614E+00    2.7212032859369884E+01    4.2357605980807306E-01
C    1.0173482807716010E+01    2.8445893808341687E+01    3.8912521772280090E-01
C    1.1579960108250285E+01    2.8435659474963860E+01    4.2613341509750385E-01
C    8.0020339484151251E+00    2.9649293760040646E+01    3.8361113133883756E-01
C    9.4556955420128332E+00    2.9682472184004578E+01    3.7258237064370237E-01
C    1.0178020422928597E+01    3.0886658155943135E+01    3.5646442489090774E-01
C    1.1616633990703487E+01    3.0875715781220091E+01    4.2260978029604296E-01
C    8.0065432157750642E+00    3.2088897548872396E+01    2.9115561500538417E-01
C    9.4339695713899037E+00    3.2124972079535233E+01    3.1785639887071621E-01
C    1.0198003510022874E+01    2.1019810701587268E+01    7.9244898241840400E-01
C    1.1638763742119922E+01    2.1054082727152743E+01    7.6722589243160566E-01
C    1.2295454576930348E+01    2.2281128434607155E+01    5.9642707855824473E-01
C    1.3710859713277385E+01    2.2308902164246948E+01    5.6561580239568388E-01
C    1.4431146438336041E+01    2.3512784706741769E+01    5.2646158561635381E-01
C    1.5843655771996549E+01    2.3538180510680650E+01    6.0323599154675933E-01
C    1.2273965518135583E+01    2.4743425001792900E+01    4.4627360155724632E-01
C    1.3692702139018001E+01    2.4698038668504513E+01    4.5412045944368734E-01
C    1.4413178501052856E+01    2.5944600675049045E+01    4.4936563011368036E-01
C    1.5855019097954493E+01    2.5978862208660672E+01    4.4888633475211465E-01
C    1.2311019000339135E+01    2.7164957360658548E+01    4.6577734093699741E-01
C    1.3732982619702630E+01    2.7164507534459329E+01    4.8943998023148361E-01
C    1.4436559015109591E+01    2.8437472196548018E+01    5.7758862582841830E-01
C    1.5853483440184444E+01    2.8472330658898588E+01    5.0531722003227153E-01
C    1.2308755450027673E+01    2.9657373954387801E+01    4.6088143779421964E-01
C    1.3733564509899891E+01    2.9656867565814331E+01    5.8601903590336579E-01
C    1.4443314272464544E+01    3.0902679855844049E+01    6.5605500758405144E-01
C    1.5868010127478609E+01    3.0923387386673838E+01    6.0244945991273435E-01
C    1.2330477143936136E+01    3.2101025817976399E+01    5.3785057840370676E-01
C    1.3737498079219867E+01    3.2180581451174916E+01    6.5897409924520878E-01
C    1.4420540396134403E+01    2.1026818550884013E+01    6.3185386758718276E-01
C    1.5856604768971975E+01    2.1100967548023895E+01    6.4169469269085422E-01
C    3.6875918207737746E+00    3.4540166341083697E+01    1.0303191300185896E-01
C    5.1347587418294358E+00    3.4526525829500628E+01    2.0456356068561365E-01
C    5.8595546323205481E+00    3.5780610710334521E+01    3.3101539842288918E-01
C    7.3028694241326058E+00    3.5812188183314113E+01    3.4885230368230968E-01
C    3.7569939785571149E+00    3.7009024564391005E+01    1.4027803170477954E-01
C    5.1551944164216046E+00    3.6984802568504001E+01    3.3110657020985590E-01
C    5.9143098608590936E+00    3.8218920409969890E+01    4.5416216618709998E-01
C    7.3231452068703202E+00    3.8262641500740521E+01    5.5727695214297712E-01
C    3.8021225334532724E+00    3.9438135845025613E+01    5.6314183671315554E-01
C    5.1897024007774775E+00    3.9464838968181127E+01    5.5923086358152341E-01
C    5.9248216862904197E+00    4.0654591226632803E+01    7.3842552773033243E-01
C    7.3163695151471453E+00    4.0709745645219286E+01    7.6731666033946178E-01
C    3.7335967767410905E+00    4.1970771589801835E+01    6.6816081046711673E-01
C    5.2067076437869977E+00    4.1953185394795987E+01    7.9946342911894153E-01
C    5.8864374604109404E+00    4.3194126896890559E+01    8.1867825602170796E-01
C    7.2855324743224044E+00    4.3179212624270747E+01    8.4450462019486006E-01
C    3.7384183452061639E+00    4.4437614589374625E+01    5.4823041788694027E-01
C    5.1902923487074473E+00    4.4425007757972487E+01    7.7834756462124455E-01
C    5.9000322329359607E+00    3.3311151042760550E+01    2.8279865583949043E-01
C    7.3099861929849048E+00    3.3353662344510191E+01    2.2926295256286774E-01
C    8.0089543193018251E+00    3.4551746188476208E+01    3.3024327143201204E-01
C    9.4869831824597934E+00    3.4574426444346933E+01    4.2422480417332825E-01
C    1.0179579504001769E+01    3.5813393063248867E+01    5.9117773271330931E-01
C    1.1588035991843164E+01    3.5834488178645913E+01    6.5748797454706187E-01
C    8.0135530836076665E+00    3.7035249411184523E+01    5.0004748878056005E-01
C    9.4349979205883567E+00    3.7037596703798030E+01    6.0148623211332175E-01
C    1.0160426481691701E+01    3.8265469667225105E+01    7.5403308582733197E-01
C    1.1582086915551979E+01    3.8292491150641439E+01    7.1645906545490579E-01
C    8.0242131376001016E+00    3.9489067585183498E+01    7.8589149423176274E-01
C    9.4475959235139300E+00    3.9517587449234753E+01    8.4616858467944123E-01
C    1.0161039289534083E+01    4.0797673627716620E+01    8.4108583344702659E-01
C    1.1577257521826629E+01    4.0818543904941691E+01    8.0057730857280029E-01
C    7.9731398646912464E+00    4.1967304834308166E+01    7.7151648762862568E-01
C    9.4420903314280906E+00    4.2001984794630623E+01    8.5527210075126592E-01
C    1.0174519068614217E+01    4.3215024740996789E+01    8.1876734606401558E-01
C    1.1589819830780495E+01    4.3250640372771592E+01    8.1227316916307857E-01
C    8.0169209223080156E+00    4.4449646479718616E+01    8.0691536608024039E-01
C    9.4441564477142368E+00    4.4423958701714490E+01    8.3536441336034140E-01
C    1.0201978175604937E+01    3.3341071947119090E+01    4.1798271303661316E-01
C    1.1608605197433073E+01    3.3350768413288208E+01    5.4367099687636578E-01
C    1.2257137641394504E+01    3.4594228444268495E+01    6.4255816853821057E-01
C    1.3657600810508384E+01    3.4612845192857613E+01    8.1468705293872168E-01
C    1.4397724008357780E+01    3.5821710710643494E+01    8.2113878902833404E-01
C    1.5840535085881195E+01    3.5892946713995052E+01    7.2998991474288533E-01
C    1.2300825266794751E+01    3.7045937560757658E+01    7.0516993191618837E-01
C    1.3748240073502989E+01    3.7073606187841420E+01    8.4466550028434950E-01
C    1.4416380517361363E+01    3.8324336686864577E+01    8.5685206970925276E-01
C    1.5842101014645362E+01    3.8351244383217050E+01    8.5360154771283681E-01
C    1.2295315204796543E+01    3.9577742558690680E+01    7.6563786986453819E-01
C    1.3713404607549892E+01    3.9549310639846134E+01    8.7030655048431138E-01
C    1.4425131183035283E+01    4.0817288855136134E+01    8.8917509967193398E-01
C    1.5829881064833319E+01    4.0808422383235907E+01    8.9049486743285278E-01
C    1.2321073629856004E+01    4.2038650683201439E+01    8.6706581940948457E-01
C    1.3738174830164317E+01    4.2033093438619311E+01    8.0439003649601271E-01
C    1.4459338587028356E+01    4.3294343370260243E+01    8.0560262341936717E-01
C    1.5895299268875847E+01    4.3281283611244419E+01    7.3389035599126073E-01
C    1.2317622750020094E+01    4.4485472257995511E+01    7.7945117933991592E-01
C    1.3740873690526666E+01    4.4501069381431591E+01    7.5052907069634189E-01
C    1.4413458610473761E+01    3.3410218760178743E+01    7.2636205756734562E-01
C    1.5854573971876880E+01    3.3419641001394496E+01    6.8205492078088514E-01
C    1.6540872382549960E+01    2.2287965666318716E+01    6.0836919048612470E-01
C    1.7973314935705172E+01    2.2283430746406790E+01    5.9773432271811322E-01
C    1.8714790069763758E+01    2.3503153848087969E+01    5.5750340917404972E-01
C    2.0148543516368012E+01    2.3483469901661604E+01    6.2867754453415303E-01
C    1.6569021328329850E+01    2.4753426971064446E+01    5.3201385557507264E-01
C    1.7969801579162123E+01    2.4734268525089792E+01    4.2183339825527838E-01
C    1.8623155490845079E+01    2.5968617717020944E+01    3.0913128268891715E-01
C    2.0061699507557293E+01    2.5942365539642296E+01    3.2405939890040214E-01
C    1.6525764611221906E+01    2.7239394749811211E+01    3.6659863287986111E-01
C    1.7953826206162987E+01    2.7192546581876211E+01    2.6818348632526984E-01
C    1.8657358685812181E+01    2.8433522992152970E+01    2.0929861440447331E-01
C    2.0074272460936257E+01    2.8402207276954162E+01    1.7385381223636745E-01
C    1.6575901676805998E+01    2.9685692021746952E+01    4.6281248957256033E-01
C    1.8002533856859021E+01    2.9698007364112254E+01    2.1312860628118940E-01
C    1.8645892630933272E+01    3.0954850000957961E+01    1.5717058834894237E-01
C    2.0060121142360916E+01    3.0893252893270791E+01    7.8275440579835265E-02
C    1.6539128468441362E+01    3.2185618225720440E+01    5.5145821810474527E-01
C    1.7947755137704547E+01    3.2178426740428812E+01    3.0028037654104772E-01
C    1.8697148113015686E+01    2.1073976209132450E+01    7.9640774887552379E-01
C    2.0121553236762580E+01    2.1035392550871702E+01    8.3051052372141265E-01
C    2.0848386062258417E+01    2.2261683598405483E+01    7.3193568153228539E-01
C    2.2300204545815529E+01    2.2237682827516384E+01    7.1473018813506106E-01
C    2.2966175454776277E+01    2.3475833389973829E+01    6.0436101899724815E-01
C    2.4426392448096337E+01    2.3492990192059242E+01    4.9281405185762261E-01
C    2.0821405923085834E+01    2.4719187975585928E+01    4.0391071548219704E-01
C    2.2239875251266682E+01    2.4707005476558674E+01    3.4649258043656278E-01
C    2.2934086394058308E+01    2.5969852532655683E+01    3.5811752557155163E-01
C    2.4359298761648542E+01    2.5974747309811320E+01    3.6654790243802027E-01
C    2.0783680056115347E+01    2.7177419797275750E+01    2.2213913404019539E-01
C    2.2219104159253817E+01    2.7180867039691304E+01    3.0323354743297709E-01
C    2.2936122168462944E+01    2.8402731357046111E+01    3.3753440098422072E-01
C    2.4359766817239777E+01    2.8420537949556397E+01    3.6399964686899777E-01
C    2.0765968805227413E+01    2.9628676256410529E+01    1.1312055217083006E-01
C    2.2183528264274020E+01    2.9623143246400645E+01    1.7440687594345250E-01
C    2.2903025178222808E+01    3.0852973696825607E+01    1.8967684242797561E-01
C    2.4334597068622351E+01    3.0874218604115736E+01    2.2642244878253248E-01
C    2.0778323642316014E+01    3.2149000810482697E+01    7.6218719379411895E-02
C    2.2200318048230859E+01    3.2099519205688793E+01    1.7972013977785259E-01
C    2.3003863968153041E+01    2.1009391596906983E+01    7.7800595161648878E-01
C    2.4423992229953559E+01    2.1000574190314637E+01    5.7359380273335447E-01
C    2.5119748324648629E+01    2.2229403858019079E+01    5.8905813286188835E-01
C    2.6543026616945209E+01    2.2235642180512180E+01    4.5909402866401444E-01
C    2.7222046167742171E+01    2.3476031006488434E+01    4.2404505727112440E-01
C    2.8637199541215210E+01    2.3495500055049117E+01    4.2333061487584306E-01
C    2.5120997543452408E+01    2.4740661763210536E+01    4.3112618278134834E-01
C    2.6508144780504640E+01    2.4721910832879118E+01    3.3920007541694086E-01
C    2.7219511925823412E+01    2.5940290612295723E+01    3.3081584048764878E-01
C    2.8649062432982795E+01    2.5939924177845807E+01    3.2353847749390002E-01
C    2.5073029373957858E+01    2.7182071496354098E+01    3.9181880800207730E-01
C    2.6504770185675039E+01    2.7183600987591561E+01    3.9002676937413205E-01
C    2.7238276149654997E+01    2.8389355413735053E+01    3.5847925137388564E-01
C    2.8671620692210126E+01    2.8427856785556223E+01    4.0290391560250832E-01
C    2.5063939405809794E+01    2.9637421408680844E+01    2.5826318776820772E-01
C    2.6492370859387897E+01    2.9630580118004353E+01    2.6201391435382815E-01
C    2.7222692643959217E+01    3.0870872003401971E+01    2.4130182060974734E-01
C    2.8648809281843082E+01    3.0872602599832614E+01    3.0324699253244625E-01
C    2.5035633609169739E+01    3.2097833490060182E+01    2.7308264303165358E-01
C    2.6476003739650555E+01    3.2077064251958625E+01    1.9577240849262054E-01
C    2.7209642861030453E+01    2.0989730649986210E+01    4.4590283515473667E-01
C    2.8671180710850429E+01    2.0988933842229642E+01    4.2102145275354208E-01
C    1.6563961721766098E+01    3.4657339442825283E+01    6.0347452178765926E-01
C    1.7978428453938960E+01    3.4640044894572405E+01    4.1000875909932383E-01
C    1.8709268875185902E+01    3.5861868077701054E+01    3.9431715907007675E-01
C    2.0110816688560320E+01    3.5889742256203739E+01    3.6758778267599801E-01
C    1.6545300303038740E+01    3.7109368655890698E+01    7.3384556898689790E-01
C    1.8000660082318390E+01    3.7088911474633825E+01    5.6720019754608697E-01
C    1.8710242678415533E+01    3.8335316965302390E+01    6.4343213232694285E-01
C    2.0174596811560885E+01    3.8343287863577814E+01    6.1937287682975162E-01
C    1.6551292549974480E+01    3.9579251593610572E+01    8.5200970655184949E-01
C    1.8001655259147288E+01    3.9566442393062218E+01    7.7062794243229160E-01
C    1.8723100776069039E+01    4.0770177765792532E+01    8.2797949067613841E-01
C    2.0173716385188435E+01    4.0752181347822571E+01    8.5195693854955823E-01
C    1.6580358131786454E+01    4.2014365321734196E+01    8.1956036660455245E-01
C    1.7964552479510363E+01    4.1964087876578290E+01    8.3268391893939842E-01
C    1.8703538170897357E+01    4.3208162179138718E+01    7.8331227214012278E-01
C    2.0158569913478122E+01    4.3230753623916755E+01    7.7304262793828127E-01
C    1.6593975845620335E+01    4.4500450340090254E+01    7.0245298573057435E-01
C    1.8002949535325314E+01    4.4476409152292042E+01    8.1959955281790542E-01
C    1.8654795000678504E+01    3.3404625163704999E+01    2.5544268547678900E-01
C    2.0091190511224621E+01    3.3377547478105015E+01    1.3213901123807031E-01
C    2.0826771859845476E+01    3.4633532876722178E+01    2.7070235025779638E-01
C    2.2248507912516775E+01    3.4609272087431044E+01    2.8347737497185083E-01
C    2.2978291605526721E+01    3.5830715431092329E+01    3.2847052985582431E-01
C    2.4383753339910225E+01    3.5841682880098382E+01    2.4403472606350796E-01
C    2.0878252418053865E+01    3.7070839330766212E+01    5.1435987670471683E-01
C    2.2301985421698674E+01    3.7082812658867390E+01    3.9691092907459979E-01
C    2.3043428948662658E+01    3.8339555231189721E+01    4.4534162221742801E-01
C    2.4428159450423408E+01    3.8313688105815210E+01    4.6381711072801968E-01
C    2.0896328664041942E+01    3.9542924713428292E+01    7.8776172060197769E-01
C    2.2322472715344460E+01    3.9550600259118227E+01    6.3076115777339947E-01
C    2.3030177336149919E+01    4.0755202748482894E+01    6.9048970385458197E-01
C    2.4447139465540744E+01    4.0756141603391264E+01    6.1662353588997776E-01
C    2.0881754936248811E+01    4.1999902070244147E+01    8.2469658819301972E-01
C    2.2288511069169129E+01    4.1981009634343557E+01    8.0926180088905664E-01
C    2.2965093343411283E+01    4.3238409406501908E+01    8.0382412713849416E-01
C    2.4379397792866332E+01    4.3210936668354080E+01    5.7688040945399199E-01
C    2.0842594069102173E+01    4.4481362692678651E+01    7.8624757450060134E-01
C    2.2252698793908028E+01    4.4456467468165407E+01    8.1485107498654774E-01
C    2.2916239554175750E+01    3.3339423292827810E+01    2.2756810908661096E-01
C    2.4358514383710098E+01    3.3350285563607358E+01    2.9279268477993192E-01
C    2.5073849591866583E+01    3.4596902312603156E+01    2.1003990875002887E-01
C    2.6515680843305635E+01    3.4573934362291212E+01    4.8350777423798071E-02
C    2.7216239893966243E+01    3.5804356913603243E+01    6.8182532580257652E-02
C    2.8620825520994355E+01    3.5815043008566285E+01    6.4216209890105139E-02
C    2.5132370148417230E+01    3.7063503375710347E+01    3.3376253421944002E-01
C    2.6589878837413053E+01    3.7052114647507864E+01    2.4671508726574928E-01
C    2.7257028856714637E+01    3.8283738006024905E+01    3.5988780476230403E-01
C    2.8685319639546524E+01    3.8261952423119517E+01    3.5474255849214759E-01
C    2.5126272734318736E+01    3.9530512191670567E+01    5.0179064182447941E-01
C    2.6565705368597307E+01    3.9508117488876188E+01    5.2125227598117796E-01
C    2.7269322102217092E+01    4.0765157785994980E+01    5.3828331944334007E-01
C    2.8717542873622044E+01    4.0688221633026295E+01    5.8842216161557348E-01
C    2.5141722706644245E+01    4.2003424148142543E+01    6.1913242844668903E-01
C    2.6571879550161384E+01    4.1989422495359861E+01    5.7638114777868776E-01
C    2.7288519346339772E+01    4.3205116884365580E+01    5.1045149322913519E-01
C    2.8726642328272181E+01    4.3221822281425830E+01    5.7843878489135381E-01
C    2.5115264384985075E+01    4.4408398977918573E+01    5.2133673982527284E-01
C    2.6540966396865532E+01    4.4438279459134947E+01    4.7372964155939601E-01
C    2.7184994229921806E+01    3.3338196047675311E+01    7.0333655504437237E-02
C    2.8625018457515214E+01    3.3285689192392418E+01    1.9964369311205379E-01
O    1.7935778018035393E+02    1.2821609398466484E+02    1.7344921736545864E+01
H    1.7939889664882810E+02    1.2826439394400597E+02    1.6338690654240850E+01
H    1.7883045850316998E+02    1.2904947164712593E+02    1.7510330783429424E+01
O    1.9694321258064431E+02    5.6301291149409742E+01    1.8557974051618668E+01
H    1.9629304696625704E+02    5.6458811874998069E+01    1.7788270564635553E+01
H    1.9638819342496097E+02    5.6465264357779049E+01    1.9347751396355029E+01
O    1.1459764165675267E+02    1.5999933486307009E+02    6.4215416237501213E+00
H    1.1460650808415350E+02    1.6050447664185580E+02    5.5569808021542437E+00
H    1.1369153845048379E+02    1.6017615728488065E+02    6.8116217266203423E+00
O    1.9696112857958886E+02    1.0647520904210894E+02    6.9411365380451420E+00
H    1.9606806454378716E+02    1.0665955054320409E+02    7.2436728923785623E+00
H    1.9694556792969735E+02    1.0548204489630592E+02    7.0315010691019824E+00
O    1.7535412047005241E+02    1.1877583143291896E+02    3.6639409071063778E+00
H    1.7581683072286623E+02    1.1795468574296955E+02    3.7924995642966950E+00
H    1.7598924481810457E+02    1.1954081966799848E+02    3.9329188062225575E+00
O    1.4204120111568142E+02    9.6521983618235382E+01    9.5653701207532063E+00
H    1.4276551237377629E+02    9.7060669925285211E+01    9.1648353700622991E+00
H    1.4184364892567075E+02    9.5757675876734837E+01    8.9240392622258859E+00
O    1.8956266268397025E+02    1.4046481475560256E+02    6.8995828837848396E+00
H    1.8869605936353980E+02    1.4057932728451289E+02    6.4995476480843433E+00
H    1.9028229376673005E+02    1.4022727897903266E+02    6.2018406003446911E+00
O    1.9462308852701236E+02    2.6805785472701793E+01    9.7049714979952064E+00
H    1.9400341844066816E+02    2.6826393631889264E+01    1.0469345723330296E+01
H    1.9395631283891413E+02    2.6935562968041047E+01    9.0126522358628129E+00
O    6.9980243113108742E+01    1.8021854267529184E+02    1.4516793431704739E+01
H    6.9071749371311839E+01    1.8029574661512737E+02    1.4089836108833516E+01
H    6.9843966069762473E+01    1.8052086343573049E+02    1.5475037867354022E+01
O    2.4637434778142193E+02    1.5413711096017130E+02    1.1225329081410925E+01
H    2.4666993587574765E+02    1.5453600757640484E+02    1.2044754367160927E+01
H    2.4543670677729267E+02    1.5379923616868740E+02    1.1344930040030787E+01
O    1.7429215432910777E+02    1.2354220701155097E+02    1.7335738977976114E+01
H    1.7519547285525201E+02    1.2304371742960974E+02    1.7354102964779955E+01
H    1.7431496666972737E+02    1.2435001914948251E+02    1.6678710543144025E+01
O    8.4392713108276567E+01    1.3110083671216401E+02    1.2023818148126388E+01
H    8.4493649828702544E+01    1.3027565848605315E+02    1.2662627331370416E+01
H    8.4862877272168021E+01    1.3073380315307682E+02    1.1212061495641436E+01
O    1.5926051548917707E+02    7.9196075182150025E+01    1.6669309181510446E+01
H    1.5848121795752374E+02    7.8685605706779356E+01    1.6285268107508877E+01
H    1.6011723788023440E+02    7.8751741298386449E+01    1.6416126612310808E+01
O    2.6724554914818634E+02    2.1670214597311048E+01    1.4170637042606167E+01
H    2.6740312164569320E+02    2.1217466292021488E+01    1.5065845307234602E+01
H    2.6624587025902184E+02    2.1818483256695302E+01    1.3957924709702088E+01
O    1.4461666908581981E+02    2.6912907059021546E+02    1.4636448492329293E+01
H    1.4458536332023036E+02    2.6893311695306039E+02    1.3665731978335240E+01
H    1.4555415418677410E+02    2.6941979663936377E+02    1.4723797483367285E+01
O    2.0548056901426978E+02    1.9008242043088450E+02    1.2027268994902576E+01
H    2.0640957643992024E+02    1.8975313319172335E+02    1.1914973247095849E+01
H    2.0556723604584181E+02    1.9045913528098873E+02    1.2994935339356084E+01
O    1.5143172223253595E+02    1.6830257924258470E+02    1.4292872474434310E+01
H    1.5214687875775152E+02    1.6838403505799323E+02    1.5002860074392462E+01
H    1.5185045998045507E+02    1.6897950084892574E+02    1.3667097313533526E+01
O    1.8292499061978936E+02    1.1319969813855003E+02    1.3782068650866236E+01
H    1.8273739441066692E+02    1.1348306497257114E+02    1.2896968290606095E+01
H    1.8292642762993830E+02    1.1219755152670176E+02    1.3640663228034821E+01
O    1.7875709480403953E+02    1.2464971340443866E+02    1.6244323103477679E+01
H    1.7831281089370151E+02    1.2531152979523094E+02    1.5640831221695134E+01