 # Version information for this restart file 
 # current date 2020-01-25 15:13:36.307
 # current working dir /scratch/snx3000/gtocci/gtocci/MEMBRANES/AIMD_US_IONS_BN/aimd_us_iodide/us_8
 # Program compiled at                              Fri Nov 22 15:19:42 CET 2019
 # Program compiled on                                                  daint102
 # Program compiled for                                   CRAY_XC50-gfortran_gpu
 # Source code revision number                                       git:a698b45
 &GLOBAL
   PRINT_LEVEL  LOW
   PROJECT_NAME BNS
   RUN_TYPE  MD
   WALLTIME 86400
 &END GLOBAL
 &MOTION
   &MD
     ENSEMBLE  NVT
     STEPS  2000
     TIMESTEP     9.9999999999999989E-01
     STEP_START_VAL  43314
     TIME_START_VAL     4.3313999999987114E+04
     ECONS_START_VAL    -8.4830086221619440E+03
     TEMPERATURE     3.0000000000000000E+02
     TEMP_KIND  T
     &BAROSTAT
       PRESSURE     1.0000000000000000E+00
       TIMECON     9.9999999999999986E+01
       VIRIAL  Z
     &END BAROSTAT
     &THERMOSTAT
       TYPE  NOSE
       REGION  GLOBAL
       &NOSE
         LENGTH  4
         TIMECON     9.9999999999999986E+01
         MTS  2
         &COORD
               2.6125535735640065E-01    2.1950812040345467E+00    1.0681202335814408E+01   -1.2151312821293283E+01
         &END COORD
         &VELOCITY
               8.6477658481188419E-07   -1.8746896119372565E-04   -5.6024277719390661E-05   -1.2053058974951051E-04
         &END VELOCITY
         &MASS
               7.0145132684705392E+07    1.6237299232570693E+04    1.6237299232570693E+04    1.6237299232570693E+04
         &END MASS
         &FORCE
               9.4812719301321673E-10   -5.5279351350225000E-08   -2.3365402439050459E-08   -5.5371294156125657E-08
         &END FORCE
       &END NOSE
     &END THERMOSTAT
     &AVERAGES  T
       &RESTART_AVERAGES
         ITIMES_START  1
         AVECPU     2.3574717721955025E+01
         AVEHUGONIOT     0.0000000000000000E+00
         AVETEMP_BARO     0.0000000000000000E+00
         AVEPOT    -8.4858265611482402E+03
         AVEKIN     2.0498869889305684E+00
         AVETEMP     2.9967701026405666E+02
         AVEKIN_QM     0.0000000000000000E+00
         AVETEMP_QM     0.0000000000000000E+00
         AVEVOL     2.2086622704881273E+05
         AVECELL_A     4.9287836997924920E+01
         AVECELL_B     4.7426456757032106E+01
         AVECELL_C     9.4486306644279694E+01
         AVEALPHA     9.0000000000000000E+01
         AVEBETA     9.0000000000000000E+01
         AVEGAMMA     9.0000000000000000E+01
         AVE_ECONS     3.5048007426695420E+01
         AVE_PRESS     0.0000000000000000E+00
         AVE_PXX     0.0000000000000000E+00
       &END RESTART_AVERAGES
     &END AVERAGES
     &PRINT
       &TEMP_KIND  SILENT
       &END TEMP_KIND
     &END PRINT
   &END MD
   &FREE_ENERGY
     &METADYN
       MIN_DISP    -1.0000000000000000E+00
       OLD_HILL_NUMBER  0
       OLD_HILL_STEP  0
       DO_HILLS  F
       STEP_START_VAL  43314
       NHILLS_START_VAL  0
       &METAVAR
         SCALE     1.0000000000000000E+00
         COLVAR  1
       &END METAVAR
       &PRINT
         &COLVAR  SILENT
           COMMON_ITERATION_LEVELS  3
           &EACH
             MD  1
           &END EACH
         &END COLVAR
       &END PRINT
     &END METADYN
   &END FREE_ENERGY
   &CONSTRAINT
     &COLLECTIVE
       COLVAR  1
       INTERMOLECULAR  T
       &RESTRAINT
         K     4.4625385281452931E-04
       &END RESTRAINT
     &END COLLECTIVE
     &COLVAR_RESTART
           7.7812382754947915E+00
     &END COLVAR_RESTART
   &END CONSTRAINT
   &PRINT
     &TRAJECTORY  SILENT
       &EACH
         MD  1
       &END EACH
     &END TRAJECTORY
     &VELOCITIES  SILENT
       &EACH
         MD  1
       &END EACH
     &END VELOCITIES
     &FORCES  SILENT
       UNIT eV*angstrom^-1
       &EACH
         MD  1
       &END EACH
     &END FORCES
     &RESTART  SILENT
       &EACH
         MD  1
       &END EACH
     &END RESTART
     &RESTART_HISTORY  SILENT
       &EACH
         MD  100
       &END EACH
     &END RESTART_HISTORY
   &END PRINT
 &END MOTION
 &FORCE_EVAL
   METHOD  QS
   &DFT
     BASIS_SET_FILE_NAME /users/gtocci/scratch_daint_3000/data_cp2k//BASIS_MOLOPT
     POTENTIAL_FILE_NAME /users/gtocci/scratch_daint_3000/data_cp2k//GTH_POTENTIALS
     WFN_RESTART_FILE_NAME ./BNS-RESTART.wfn
     CHARGE  -1
     &SCF
       MAX_SCF  10
       EPS_SCF     9.9999999999999995E-07
       SCF_GUESS  RESTART
       &OT  T
         MINIMIZER  DIIS
         PRECONDITIONER  FULL_KINETIC
       &END OT
       &OUTER_SCF  T
         EPS_SCF     9.9999999999999995E-07
         MAX_SCF  30
       &END OUTER_SCF
       &PRINT
         &RESTART  SILENT
           ADD_LAST  NUMERIC
           &EACH
             QS_SCF  50
           &END EACH
         &END RESTART
       &END PRINT
     &END SCF
     &QS
       MAP_CONSISTENT  T
       EXTRAPOLATION  ASPC
       EXTRAPOLATION_ORDER  4
     &END QS
     &MGRID
       NGRIDS  5
       CUTOFF     4.6000000000000000E+02
     &END MGRID
     &XC
       DENSITY_CUTOFF     1.0000000000000000E-10
       GRADIENT_CUTOFF     1.0000000000000000E-10
       TAU_CUTOFF     1.0000000000000000E-10
       &XC_GRID
         XC_DERIV  SPLINE2_SMOOTH
       &END XC_GRID
       &XC_FUNCTIONAL  NO_SHORTCUT
         &LIBXC  T
           FUNCTIONAL XC_GGA_X_OPTB88_VDW
         &END LIBXC
         &VWN  T
         &END VWN
       &END XC_FUNCTIONAL
       &VDW_POTENTIAL
         POTENTIAL_TYPE  NON_LOCAL
         &NON_LOCAL
           TYPE  DRSLL
           VERBOSE_OUTPUT  T
           KERNEL_FILE_NAME /users/gtocci/scratch_daint_3000/data_cp2k//vdW_kernel_table.dat
           CUTOFF     3.6000000000000000E+02
         &END NON_LOCAL
       &END VDW_POTENTIAL
     &END XC
     &REAL_TIME_PROPAGATION
       INITIAL_WFN  SCF_WFN
     &END REAL_TIME_PROPAGATION
     &PRINT
       &MULLIKEN  SILENT
         FILENAME =BNS.mulliken
       &END MULLIKEN
     &END PRINT
   &END DFT
   &SUBSYS
     &CELL
       A     2.6082000000000019E+01    0.0000000000000000E+00    0.0000000000000000E+00
       B     0.0000000000000000E+00    2.5097000000000001E+01    0.0000000000000000E+00
       C     0.0000000000000000E+00    0.0000000000000000E+00    5.0000000000000028E+01
       MULTIPLE_UNIT_CELL  1 1 1
     &END CELL
     &COORD
B   -2.3424044878134662E+00    6.0628284929046892E+00   -3.5530885353358592E+01
B   -2.1077674208701652E-01    7.3021164360266910E+00   -3.5463202380066022E+01
B   -2.3740118289980723E+00    8.5986930501426286E+00   -3.5464462933796625E+01
B   -2.2328525116411138E-01    9.8758008554371433E+00   -3.5330519784156508E+01
B   -2.4285663745941148E+00    1.1090029723043708E+01   -3.5376999255721103E+01
B   -2.2854799193348860E-01    1.2393026852287655E+01   -3.5127489233839533E+01
B   -2.3841323089731703E+00    1.3664073838597064E+01   -3.5406637910434249E+01
B   -2.5633239896518534E-01    1.4913382217617256E+01   -3.5133489363403903E+01
B   -2.4090052100819919E+00    1.6196476225965526E+01   -3.5132377581567845E+01
B   -1.5247961452383499E-01    1.7448657066993064E+01   -3.5045939784789915E+01
B    1.9520718608788910E+00    6.0540335792047646E+00   -3.5386535277232717E+01
B    4.1683285152351512E+00    7.3374416100778879E+00   -3.5224306340309845E+01
B    1.9568563561192458E+00    8.5800400299925155E+00   -3.5201190314152676E+01
B    4.1594334430067610E+00    9.8210005702124334E+00   -3.4968951147700523E+01
B    1.9210311010558037E+00    1.1035704776983634E+01   -3.5185248717266859E+01
B    4.1300496988652542E+00    1.2352388610825990E+01   -3.5101136516383086E+01
B    1.9036457905742672E+00    1.3626116631370842E+01   -3.5081454545532090E+01
B    4.1389818022911848E+00    1.4860031111916671E+01   -3.5127767051589380E+01
B    1.9912026407041206E+00    1.6151486401791086E+01   -3.5041575874251009E+01
B    4.1778318547225304E+00    1.7406859075474912E+01   -3.5138917986667053E+01
B    6.3369756790233840E+00    6.1255338923717293E+00   -3.5265039661401104E+01
B    8.4821050731029040E+00    7.3658921452045121E+00   -3.5096397736213433E+01
B    6.3249668241472268E+00    8.6458937003867700E+00   -3.4967903462936768E+01
B    8.4781709551017261E+00    9.8457282587955000E+00   -3.5020262746055501E+01
B    6.3492436270922168E+00    1.1132174413578179E+01   -3.4918135914600306E+01
B    8.4948012306165026E+00    1.2390369923784805E+01   -3.4974679524984488E+01
B    6.2633005264916513E+00    1.3639066755735117E+01   -3.5046339289178476E+01
B    8.4607256011987744E+00    1.4892566627563212E+01   -3.4994459134982314E+01
B    6.2714337639927136E+00    1.6157747112887424E+01   -3.5027801737180070E+01
B    8.5137573839602361E+00    1.7345969940906517E+01   -3.5013402140534261E+01
N   -9.0783075762607091E-01    6.0383096845645534E+00   -3.5673570020612402E+01
N    1.2071483055355934E+00    7.3301158776136539E+00   -3.5442941832650497E+01
N   -9.1147363562790695E-01    8.6055148711003380E+00   -3.5338599583060073E+01
N    1.2435380173525601E+00    9.8369275190941003E+00   -3.5296443816160981E+01
N   -9.5558807781928534E-01    1.1135302832288739E+01   -3.5289329252944491E+01
N    1.1969747711193588E+00    1.2312889933691993E+01   -3.5107160866779118E+01
N   -9.3323179999142969E-01    1.3612454193811391E+01   -3.5192083628664129E+01
N    1.2309633188663671E+00    1.4908401064204758E+01   -3.5068096074532541E+01
N   -9.5393777378765154E-01    1.6187377717606104E+01   -3.5135622844278011E+01
N    1.3221527301957334E+00    1.7432941653961716E+01   -3.4972763221202136E+01
N    3.4170314476737018E+00    6.0964428816354577E+00   -3.5298065504738574E+01
N    5.6089103741089241E+00    7.3934331304688286E+00   -3.5247102743715395E+01
N    3.4360297672707576E+00    8.5543424481387191E+00   -3.5057457867943427E+01
N    5.5922080233305840E+00    9.8458486876118698E+00   -3.4847055153522341E+01
N    3.4165409780020792E+00    1.1081204090174195E+01   -3.5113176432340211E+01
N    5.5824859607785609E+00    1.2382507353589764E+01   -3.5084205435312597E+01
N    3.3748488386740108E+00    1.3623265003442453E+01   -3.5033502497944980E+01
N    5.6034837928140702E+00    1.4903840250649319E+01   -3.5132471589381701E+01
N    3.4827705980633517E+00    1.6164190363057060E+01   -3.5076498874002141E+01
N    5.5932582638817046E+00    1.7437571537707775E+01   -3.5094515295376347E+01
N    7.7425248029949403E+00    6.1166798700100280E+00   -3.5111748720759635E+01
N    9.9250055071711731E+00    7.3548317699966619E+00   -3.5034504310595729E+01
N    7.7429371016180530E+00    8.6248058646104671E+00   -3.5072955338575817E+01
N    9.9500534821878439E+00    9.8609960755762280E+00   -3.5088750731674828E+01
N    7.7736077654131659E+00    1.1088778790026005E+01   -3.4900610357161341E+01
N    9.9679965939340018E+00    1.2369156387934469E+01   -3.5028174456307475E+01
N    7.6953252751777308E+00    1.3628945093447845E+01   -3.4993926692503557E+01
N    9.9374031672612357E+00    1.4872490968084588E+01   -3.4947268387149272E+01
N    7.7763117890260975E+00    1.6133016056813826E+01   -3.4865406844985813E+01
N    9.9354263773017912E+00    1.7350641473610711E+01   -3.5271463894627324E+01
B   -2.3687964935778232E+00    1.8668462935949158E+01   -3.4885042402213088E+01
B   -1.5464059300978020E-01    1.9922823191898829E+01   -3.4964830790344386E+01
B   -2.3798673439261973E+00    2.1162603827534053E+01   -3.4935458857272231E+01
B   -1.8859237239374682E-01    2.2374177657893750E+01   -3.4988704886516743E+01
B   -2.3306899916937298E+00    2.3689483051175458E+01   -3.5228369186424544E+01
B   -1.6890790838515890E-01    2.4922112641266725E+01   -3.5262157886861154E+01
B   -2.3930077760393025E+00    2.6228391823025177E+01   -3.5484430566954089E+01
B   -1.8336550949982042E-01    2.7418138989682831E+01   -3.5342454392859160E+01
B   -2.3454564380376004E+00    2.8676448399632228E+01   -3.5646172000612836E+01
B   -1.9909377729755928E-01    2.9883201764461450E+01   -3.5619549969873077E+01
B    2.0108347628282068E+00    1.8615688707327323E+01   -3.5047098745821252E+01
B    4.1531481778812287E+00    1.9937952531451053E+01   -3.5027975131838254E+01
B    2.0124104320940983E+00    2.1135641675432058E+01   -3.5024309606669895E+01
B    4.1996031279708106E+00    2.2388833448799335E+01   -3.5210798853441887E+01
B    1.9930907853762325E+00    2.3688012150471138E+01   -3.5107891653058033E+01
B    4.1812341263777499E+00    2.4892261326957431E+01   -3.5175709512677820E+01
B    1.9915774835173530E+00    2.6185112266830512E+01   -3.5223270119887296E+01
B    4.1238993501048915E+00    2.7407169238983698E+01   -3.5196979875326107E+01
B    1.9956980359537986E+00    2.8694239934407527E+01   -3.5293195213960793E+01
B    4.1292759121513427E+00    2.9969958917961531E+01   -3.5286777012790957E+01
B    6.3786451903891370E+00    1.8670161259847315E+01   -3.4970857039976593E+01
B    8.4889948884016846E+00    1.9867999692521117E+01   -3.5046232034621077E+01
B    6.3160910841056577E+00    2.1145490822455958E+01   -3.5096587298375262E+01
B    8.4714606784407049E+00    2.2379609177519107E+01   -3.5129013012578106E+01
B    6.3409015953172752E+00    2.3648599042630956E+01   -3.5233904640163679E+01
B    8.5350348047071876E+00    2.4914079070730317E+01   -3.5294326931357567E+01
B    6.3299788925996028E+00    2.6177191166014282E+01   -3.5381470602609269E+01
B    8.4762517422802137E+00    2.7398373500695129E+01   -3.5529748467074874E+01
B    6.2800694599786269E+00    2.8658853933970441E+01   -3.5356151156439324E+01
B    8.4360534028966772E+00    2.9934022062861320E+01   -3.5308261508134287E+01
N   -8.9581053666139177E-01    1.8675209279049341E+01   -3.4965654249190258E+01
N    1.2855741088893979E+00    1.9937723011601978E+01   -3.5039938194354960E+01
N   -9.1840110494946492E-01    2.1146396897640670E+01   -3.4873017427146451E+01
N    1.2748821719008869E+00    2.2414619397018402E+01   -3.5006538690562408E+01
N   -9.3382506585301983E-01    2.3653271300101757E+01   -3.5131429226829134E+01
N    1.2518806877086117E+00    2.4922225238262016E+01   -3.5101823836388270E+01
N   -9.4137006436989423E-01    2.6197080734496154E+01   -3.5340005958318500E+01
N    1.2593005080702944E+00    2.7400837473368348E+01   -3.5298908819430991E+01
N   -8.9189264480363062E-01    2.8636602785400616E+01   -3.5596194588827679E+01
N    1.2504321496266795E+00    2.9897433289226612E+01   -3.5430208627063401E+01
N    3.4498635637987074E+00    1.8623517569815498E+01   -3.4992807114499634E+01
N    5.5825079606349464E+00    1.9883680002183816E+01   -3.4997369847570795E+01
N    3.4487499462907247E+00    2.1171569912269728E+01   -3.5217711916860473E+01
N    5.6081485292800277E+00    2.2418031591278286E+01   -3.5130732303261986E+01
N    3.4345733290098264E+00    2.3644793991140808E+01   -3.5208643099544474E+01
N    5.5907551829741768E+00    2.4893817442487112E+01   -3.5364750174118242E+01
N    3.4078235759755171E+00    2.6144847014815184E+01   -3.5157554589456275E+01
N    5.5783457382798725E+00    2.7422426725161131E+01   -3.5257343373360406E+01
N    3.3920942572735626E+00    2.8653820092949974E+01   -3.5189787802454241E+01
N    5.5571539029936643E+00    2.9928629349257601E+01   -3.5375098741854146E+01
N    7.7963944500403235E+00    1.8615029451681242E+01   -3.4943430221598746E+01
N    9.9349898177919602E+00    1.9945249295128878E+01   -3.5116093995866507E+01
N    7.7611219085656717E+00    2.1125482262263354E+01   -3.5096134800814895E+01
N    9.9377998677233883E+00    2.2384733211832295E+01   -3.5232682960382419E+01
N    7.7988823101552835E+00    2.3719845221263910E+01   -3.5104349237811391E+01
N    9.9218363580403395E+00    2.4928687561781523E+01   -3.5298612636098390E+01
N    7.8179768252706339E+00    2.6134260721411341E+01   -3.5376204833874610E+01
N    9.9269734218783299E+00    2.7360259246385688E+01   -3.5657511065264110E+01
N    7.7356899389612632E+00    2.8616798309596170E+01   -3.5474720442588996E+01
N    9.8834830805867284E+00    2.9897352017869164E+01   -3.5418709067627745E+01
B    1.0667331463578883E+01    6.0585889279448404E+00   -3.5258410019240905E+01
B    1.2741738293447192E+01    7.3421445616177081E+00   -3.5426613645059987E+01
B    1.0596617870031146E+01    8.6254768507550086E+00   -3.5095615001267404E+01
B    1.2850201870649041E+01    9.8311683873739781E+00   -3.5290449758875923E+01
B    1.0636481729278369E+01    1.1107744591804336E+01   -3.5094836945199880E+01
B    1.2823806374234415E+01    1.2386689180090961E+01   -3.5250276491197731E+01
B    1.0708816960838297E+01    1.3622430948225210E+01   -3.5079701536913305E+01
B    1.2818224573801288E+01    1.4897281554270183E+01   -3.5154271670541263E+01
B    1.0667238005783544E+01    1.6100086229780494E+01   -3.5075119620809474E+01
B    1.2804119555828196E+01    1.7361071844927096E+01   -3.4985554415639939E+01
B    1.4961092771077453E+01    6.1410669921695193E+00   -3.5475433578145640E+01
B    1.7142494080812995E+01    7.3983213926320985E+00   -3.5680323623544275E+01
B    1.4942839662988487E+01    8.6194219463742758E+00   -3.5556675988009012E+01
B    1.7150286904067240E+01    9.9145883440960088E+00   -3.5709718834764764E+01
B    1.4983216963061151E+01    1.1147088654887357E+01   -3.5428549735367916E+01
B    1.7142387624177111E+01    1.2360702689778243E+01   -3.5573496347691105E+01
B    1.5001240483233111E+01    1.3649223849737416E+01   -3.5288459023150637E+01
B    1.7164699375117600E+01    1.4874683089758992E+01   -3.5378913798849020E+01
B    1.5026289381309651E+01    1.6110052440395656E+01   -3.5136402170100745E+01
B    1.7141929468568055E+01    1.7368828946178578E+01   -3.5128052280628800E+01
B    1.9335171568285062E+01    6.1293991111572090E+00   -3.5697607273661369E+01
B    2.1497269110709347E+01    7.3725179412136121E+00   -3.5630145210054771E+01
B    1.9349494193707514E+01    8.6596007936690107E+00   -3.5731386890767872E+01
B    2.1553225538265249E+01    9.8188073850581361E+00   -3.5709468814923746E+01
B    1.9353111597549685E+01    1.1146810334405643E+01   -3.5750291790169250E+01
B    2.1536960625253222E+01    1.2399723383203510E+01   -3.5568563738245537E+01
B    1.9344787682497191E+01    1.3631924431307100E+01   -3.5521962476792865E+01
B    2.1510954384805967E+01    1.4910786441125422E+01   -3.5335840460732349E+01
B    1.9352520454277478E+01    1.6113597850079074E+01   -3.5220826153856635E+01
B    2.1559998171190344E+01    1.7427839617935049E+01   -3.4936646022071322E+01
N    1.2083808173598648E+01    6.0647512275865676E+00   -3.5417074474694331E+01
N    1.4159696051392858E+01    7.3529583868038291E+00   -3.5482528731203253E+01
N    1.2043611039306937E+01    8.6367299808759110E+00   -3.5310441976757218E+01
N    1.4302909159351346E+01    9.8759623602409512E+00   -3.5382268727636543E+01
N    1.2100094954802820E+01    1.1116817825066686E+01   -3.5234004257715334E+01
N    1.4261453421215734E+01    1.2386102155666361E+01   -3.5233554909815965E+01
N    1.2084291351146121E+01    1.3675447015551960E+01   -3.5293984645405573E+01
N    1.4228038135913129E+01    1.4891898864367281E+01   -3.5231856186010901E+01
N    1.2099918878454199E+01    1.6146282683492192E+01   -3.5023501651376854E+01
N    1.4250877548409573E+01    1.7369403055407034E+01   -3.5085231009776791E+01
N    1.6419402329652193E+01    6.1319172087158957E+00   -3.5476606369664474E+01
N    1.8588325258248062E+01    7.3712211311724651E+00   -3.5719360641110235E+01
N    1.6398340412571038E+01    8.6154666026368627E+00   -3.5701743583780434E+01
N    1.8594514907432437E+01    9.8984156126165370E+00   -3.5752175388264298E+01
N    1.6445187551087155E+01    1.1148590658001361E+01   -3.5673287549572606E+01
N    1.8594511500569492E+01    1.2371695607411846E+01   -3.5532842900391351E+01
N    1.6475006231008418E+01    1.3632872929212287E+01   -3.5489424380174029E+01
N    1.8589829749227729E+01    1.4906208973240625E+01   -3.5444065774319604E+01
N    1.6422858254398935E+01    1.6087170826959802E+01   -3.5227727084647931E+01
N    1.8606868648761925E+01    1.7372906219058248E+01   -3.5187191294033937E+01
N    2.0836494279573838E+01    6.1511293455746960E+00   -3.5686782224420902E+01
N    2.2996574509773406E+01    7.3387064390052625E+00   -3.5531948071141727E+01
N    2.0768465304690256E+01    8.6270636482895675E+00   -3.5713639637370200E+01
N    2.2968123005108335E+01    9.8657762287661299E+00   -3.5486546270018238E+01
N    2.0759638354876731E+01    1.1102294163631939E+01   -3.5734849122457526E+01
N    2.2976100439762266E+01    1.2349108912367200E+01   -3.5434446987144689E+01
N    2.0800724146847834E+01    1.3635565768384586E+01   -3.5525017480240827E+01
N    2.2957604740147122E+01    1.4989387419197584E+01   -3.5390565493878341E+01
N    2.0833600507446977E+01    1.6124023561007565E+01   -3.5073553745325029E+01
N    2.2972689667431244E+01    1.7463601882347302E+01   -3.4938463349558639E+01
B    1.0606644593947770E+01    1.8653615125679337E+01   -3.5150235323206537E+01
B    1.2819679441713241E+01    1.9876868901688034E+01   -3.5036486744194136E+01
B    1.0634301522178980E+01    2.1202651304733607E+01   -3.5099369920829901E+01
B    1.2734030797571066E+01    2.2415430557673467E+01   -3.5032560800142676E+01
B    1.0636025014876928E+01    2.3636674333703461E+01   -3.5142774650426986E+01
B    1.2844587830387402E+01    2.4862411929169209E+01   -3.5328228933303599E+01
B    1.0642076827795433E+01    2.6123785906036730E+01   -3.5485965004425360E+01
B    1.2831091015740036E+01    2.7370903881130623E+01   -3.5553402769243284E+01
B    1.0656055052538546E+01    2.8628933996276544E+01   -3.5612693775122665E+01
B    1.2793312536044036E+01    2.9881236377689792E+01   -3.5427665598026387E+01
B    1.5012473095190616E+01    1.8591344841261233E+01   -3.4989042734016593E+01
B    1.7171439120297826E+01    1.9925315259084623E+01   -3.5155220238142476E+01
B    1.4957708607225468E+01    2.1128330201017413E+01   -3.4985061059089730E+01
B    1.7220919240158633E+01    2.2457806038988387E+01   -3.5119819395350802E+01
B    1.4975843775430834E+01    2.3619531816506932E+01   -3.5081341559614408E+01
B    1.7171982826333998E+01    2.4918581269005497E+01   -3.5240306677282085E+01
B    1.5015947379948717E+01    2.6172169078682398E+01   -3.5302702628830659E+01
B    1.7180742465445835E+01    2.7431202133442437E+01   -3.5431850928832198E+01
B    1.4999737564649250E+01    2.8708481977865869E+01   -3.5422250106945604E+01
B    1.7173674217931111E+01    2.9992565154273233E+01   -3.5585682572865778E+01
B    1.9307582039930402E+01    1.8642812491380202E+01   -3.5056530682433504E+01
B    2.1549340590064300E+01    1.9905042149065256E+01   -3.5007962764984818E+01
B    1.9356924042510546E+01    2.1191005609722108E+01   -3.5042114796787317E+01
B    2.1539612219252799E+01    2.2428662979195838E+01   -3.5063918108853230E+01
B    1.9364945490935696E+01    2.3688584201615413E+01   -3.5351176883899377E+01
B    2.1529680487749367E+01    2.4959797322855515E+01   -3.5357890296821679E+01
B    1.9321883240136437E+01    2.6145452692319200E+01   -3.5389848807235481E+01
B    2.1497205171832430E+01    2.7481472391164619E+01   -3.5589464383708929E+01
B    1.9340110987306701E+01    2.8718589710680693E+01   -3.5444290148491497E+01
B    2.1552483037107880E+01    2.9940883775244586E+01   -3.5571000618477733E+01
N    1.2082003858331197E+01    1.8647518864008905E+01   -3.5022532337515798E+01
N    1.4263344813864107E+01    1.9838890649293230E+01   -3.4945162856179167E+01
N    1.2072054543380576E+01    2.1132441943937714E+01   -3.5186335666511845E+01
N    1.4228356393633021E+01    2.2364570702361465E+01   -3.4986760462150919E+01
N    1.2081025891776408E+01    2.3652221438828811E+01   -3.5077657609429153E+01
N    1.4278612186497169E+01    2.4885229916318064E+01   -3.5267876625075068E+01
N    1.2107000870838551E+01    2.6072374239238528E+01   -3.5515708913117749E+01
N    1.4305919799131457E+01    2.7412534822405675E+01   -3.5363403035505776E+01
N    1.2087926453767992E+01    2.8617972646369964E+01   -3.5578465313291936E+01
N    1.4271448478720531E+01    2.9947876643751439E+01   -3.5505163888978672E+01
N    1.6444786129626674E+01    1.8626245179499556E+01   -3.5097298334443757E+01
N    1.8633516966060920E+01    1.9871241618281502E+01   -3.5143889858056326E+01
N    1.6442660923567459E+01    2.1173679948882164E+01   -3.5044613425109418E+01
N    1.8664528781067428E+01    2.2423013543343032E+01   -3.5314683997313132E+01
N    1.6479376116403682E+01    2.3680012567000002E+01   -3.5159949360506594E+01
N    1.8631705709625621E+01    2.4952269001557493E+01   -3.5268766892095876E+01
N    1.6510954255604922E+01    2.6172577578340405E+01   -3.5347794423066105E+01
N    1.8615993005249980E+01    2.7453568296530651E+01   -3.5397856900849810E+01
N    1.6481771600031351E+01    2.8691627347058976E+01   -3.5475551530019139E+01
N    1.8615420759176875E+01    2.9957303582326841E+01   -3.5596416959483939E+01
N    2.0785035502103600E+01    1.8663432871329181E+01   -3.4947313887916145E+01
N    2.2962629931794261E+01    1.9899227596308428E+01   -3.4922686972010347E+01
N    2.0834780314874294E+01    2.1157102046342857E+01   -3.4916557362841139E+01
N    2.3024802760348813E+01    2.2445893380317006E+01   -3.5072455691619460E+01
N    2.0810217950428910E+01    2.3698449131270060E+01   -3.5240729373163603E+01
N    2.3013486898295476E+01    2.4984761345836858E+01   -3.5453787219442297E+01
N    2.0775795686184221E+01    2.6201029714673734E+01   -3.5517027134831856E+01
N    2.2980318838515714E+01    2.7431750626661302E+01   -3.5738464591280980E+01
N    2.0813421374661182E+01    2.8710791013788896E+01   -3.5508948315834452E+01
N    2.2991042365769783E+01    2.9895850746995823E+01   -3.5656743859635100E+01
O    1.1249138977278022E+02   -4.9462125802449044E+01   -3.1785626211997634E+01
H    1.1329978292725608E+02   -4.9601111140854094E+01   -3.1205552932433413E+01
H    1.1242564794941434E+02   -5.0221952688174646E+01   -3.2365669682707491E+01
O    3.0733493481917908E+01    5.4144181575533592E+00   -2.5414423968108611E+01
H    3.0053364902968880E+01    5.3188985055525828E+00   -2.6127933981176266E+01
H    3.0298656057139109E+01    4.8721070200110894E+00   -2.4680559453916747E+01
O    7.3667294217218398E+01    1.9621352311926060E+01   -2.7114945042524216E+01
H    7.4381315305688702E+01    1.9219622901888812E+01   -2.7677883145813325E+01
H    7.4159380256843875E+01    2.0394072843136598E+01   -2.6668008963893165E+01
O    9.5533258266844534E+00   -2.7568663302854588E+01   -3.2344667606511855E+01
H    8.6271675401522376E+00   -2.7504108640929129E+01   -3.1825969823297271E+01
H    9.7410520986925579E+00   -2.8562219065392640E+01   -3.2425640552513457E+01
O    3.1960479205019940E+01    1.7816183404479638E+01   -2.5891278236842385E+01
H    3.2942928971325415E+01    1.8037269922840864E+01   -2.5753093866598142E+01
H    3.1652625154865067E+01    1.7915019331386009E+01   -2.5006136247340827E+01
O    4.9315421595279766E+01   -1.0968465087799051E+00   -2.1781006826902050E+01
H    5.0102400908789818E+01   -1.2958964182123915E+00   -2.1185831257445518E+01
H    4.9661681016679339E+01   -4.3931078250960920E-01   -2.2463307928131943E+01
O    2.0227804979559284E+01   -1.5788457671431500E+01   -2.0645229370650839E+01
H    2.0966938966466465E+01   -1.5800976659976309E+01   -2.0010854163231755E+01
H    2.0080345934010587E+01   -1.4848267089671268E+01   -2.0999653638165793E+01
O    1.7387591753286987E+01   -1.8974676586558303E+01   -1.7437414266086240E+01
H    1.6400444529332269E+01   -1.8789328778372692E+01   -1.7402290079924484E+01
H    1.7550992991082527E+01   -1.9936769207798662E+01   -1.7358477844152581E+01
O    2.7108419772137864E+01    1.0809535385142171E+01   -2.9155944241333842E+01
H    2.8042809598424313E+01    1.0863013674376544E+01   -2.8934806210730503E+01
H    2.6896466302152252E+01    9.8680326763021871E+00   -2.9265045403781098E+01
O    1.2740764326436206E+01   -6.5529048231960701E+01   -2.3267730615230235E+01
H    1.3716363801380698E+01   -6.5696285865258332E+01   -2.2994658815000584E+01
H    1.2272067084638007E+01   -6.6428017899143086E+01   -2.3318571528001506E+01
O    2.7633885023858866E+01   -2.8289865608661731E+01   -2.6765752415662558E+01
H    2.8334205628382104E+01   -2.8953572833831632E+01   -2.7010179340457718E+01
H    2.8022497009114623E+01   -2.7778621732522613E+01   -2.6036783208280855E+01
O    1.1643697174157779E+01   -1.7864209457565465E+01   -2.3562832280214344E+01
H    1.0763946388025849E+01   -1.8267143195659855E+01   -2.3675104893270209E+01
H    1.2231745717990778E+01   -1.8286809634152768E+01   -2.4195530814980511E+01
O    1.0799046917031332E+00   -4.9119037253323206E+01   -2.2439681389047813E+01
H    5.5459441845389923E-01   -4.8354582593148152E+01   -2.2790635093338366E+01
H    6.8182267823260567E-01   -4.9976930527821999E+01   -2.2787105897707118E+01
O    1.4877624199679903E+02   -2.0994178562301851E+01   -3.2302945306363320E+01
H    1.4956885373840166E+02   -2.1556599142308418E+01   -3.2621935037753779E+01
H    1.4875085575822604E+02   -2.1236693121585404E+01   -3.1318355446005711E+01
O    7.1137859778799415E+00    2.2713351307344651E+00   -2.1209672022251770E+01
H    7.5079548983791176E+00    1.5077294249709099E+00   -2.0740042051500357E+01
H    6.3189708466183596E+00    2.6948342058160764E+00   -2.0685424150972992E+01
O   -2.6160626612050644E+00   -3.9150163901235451E+00   -2.5592051676745708E+01
H   -1.8935942835682085E+00   -4.5298919761672929E+00   -2.5288280418647613E+01
H   -3.1093221282778489E+00   -3.6386448960682642E+00   -2.4734495450859256E+01
O    3.3812244546342541E+01   -9.1391132703676714E+00   -2.7089340662498792E+01
H    3.3148052982663380E+01   -8.5958352030804530E+00   -2.7523379436247787E+01
H    3.3609181380069245E+01   -1.0043077387446262E+01   -2.7418308412742388E+01
O    1.0640587114661036E+01   -1.4575656529146807E+01   -2.9234135131358222E+01
H    1.1618193933502953E+01   -1.4672479079053334E+01   -2.8961424508641095E+01
H    1.0468240095218279E+01   -1.4417518270596885E+01   -3.0239502064466674E+01
O    6.3640819090479734E+00   -3.3134865626772054E+01   -2.9351804437907905E+01