 # Version information for this restart file 
 # current date 2019-01-28 11:15:08.620
 # current working dir /scratch/snx3000/gtocci/gtocci/MEMBRANES/AIMD_US_IONS_GRA/potassium/aimd_us_pot/us_28
 # Program compiled at                             Thu Oct 11 21:49:41 CEST 2018
 # Program compiled on                                                  daint104
 # Program compiled for                                   CRAY_XC50-gfortran_gpu
 # Source code revision number                                     git:be74c20a5
 &GLOBAL
   PRINT_LEVEL  LOW
   PROJECT_NAME GRAS
   RUN_TYPE  MD
   WALLTIME 10200
 &END GLOBAL
 &MOTION
   &MD
     ENSEMBLE  NVT
     STEPS  100000
     TIMESTEP     9.9999999999999989E-01
     STEP_START_VAL  40777
     TIME_START_VAL     4.0776999999990679E+04
     ECONS_START_VAL    -8.3206229956297593E+03
     TEMPERATURE     3.0000000000000000E+02
     TEMP_KIND  T
     &BAROSTAT
       PRESSURE     1.0000000000000000E+00
       TIMECON     9.9999999999999986E+01
       VIRIAL  Z
     &END BAROSTAT
     &THERMOSTAT
       TYPE  NOSE
       REGION  GLOBAL
       &NOSE
         LENGTH  4
         TIMECON     9.9999999999999986E+01
         MTS  2
         &COORD
               1.8989354173873413E-01    5.2723215340203380E+00   -1.8090726576188651E+01    1.0383399108729719E+01
         &END COORD
         &VELOCITY
               1.1612496075780875E-06   -8.7618533795398874E-05   -6.6227914849512878E-05   -5.6481888897832812E-05
         &END VELOCITY
         &MASS
               7.0145132684705392E+07    1.6237299232570693E+04    1.6237299232570693E+04    1.6237299232570693E+04
         &END MASS
         &FORCE
              -1.6641837903450444E-09   -5.2684491037351934E-08   -5.0833006385649612E-08   -5.4123877144790739E-08
         &END FORCE
       &END NOSE
     &END THERMOSTAT
     &AVERAGES  T
       &RESTART_AVERAGES
         ITIMES_START  1
         AVECPU     4.6705257966385048E+01
         AVEHUGONIOT     0.0000000000000000E+00
         AVETEMP_BARO     0.0000000000000000E+00
         AVEPOT    -8.3232760421648418E+03
         AVEKIN     2.0505971421762856E+00
         AVETEMP     2.9978082896365197E+02
         AVEKIN_QM     0.0000000000000000E+00
         AVETEMP_QM     0.0000000000000000E+00
         AVEVOL     2.1331414786628089E+05
         AVECELL_A     4.8437460238125489E+01
         AVECELL_B     4.6608961231944654E+01
         AVECELL_C     9.4486306644279495E+01
         AVEALPHA     9.0000000000000057E+01
         AVEBETA     9.0000000000000057E+01
         AVEGAMMA     9.0000000000000057E+01
         AVE_ECONS    -1.5230906267572724E+00
         AVE_PRESS     0.0000000000000000E+00
         AVE_PXX     0.0000000000000000E+00
       &END RESTART_AVERAGES
     &END AVERAGES
     &PRINT
       &TEMP_KIND  SILENT
       &END TEMP_KIND
     &END PRINT
   &END MD
   &FREE_ENERGY
     &METADYN
       MIN_DISP    -1.0000000000000000E+00
       OLD_HILL_NUMBER  0
       OLD_HILL_STEP  0
       DO_HILLS  F
       STEP_START_VAL  40777
       NHILLS_START_VAL  0
       &METAVAR
         SCALE     1.0000000000000000E+00
         COLVAR  1
       &END METAVAR
       &PRINT
         &COLVAR  SILENT
           COMMON_ITERATION_LEVELS  3
           &EACH
             MD  1
           &END EACH
         &END COLVAR
       &END PRINT
     &END METADYN
   &END FREE_ENERGY
   &CONSTRAINT
     &COLLECTIVE
       COLVAR  1
       INTERMOLECULAR  T
       &RESTRAINT
         K     4.4625385281452931E-04
       &END RESTRAINT
     &END COLLECTIVE
     &COLVAR_RESTART
           2.6456165860399011E+01
     &END COLVAR_RESTART
   &END CONSTRAINT
   &PRINT
     &TRAJECTORY  SILENT
       &EACH
         MD  1
       &END EACH
     &END TRAJECTORY
     &VELOCITIES  SILENT
       &EACH
         MD  1
       &END EACH
     &END VELOCITIES
     &FORCES  SILENT
       UNIT eV*angstrom^-1
       &EACH
         MD  1
       &END EACH
     &END FORCES
     &RESTART  SILENT
       &EACH
         MD  1
       &END EACH
     &END RESTART
     &RESTART_HISTORY  SILENT
       &EACH
         MD  100
       &END EACH
     &END RESTART_HISTORY
   &END PRINT
 &END MOTION
 &FORCE_EVAL
   METHOD  QS
   &DFT
     BASIS_SET_FILE_NAME /users/gtocci/scratch_daint_3000/data_cp2k//BASIS_MOLOPT
     POTENTIAL_FILE_NAME /users/gtocci/scratch_daint_3000/data_cp2k//GTH_POTENTIALS
     WFN_RESTART_FILE_NAME ./GRAS-RESTART.wfn
     CHARGE  1
     &SCF
       MAX_SCF  10
       EPS_SCF     9.9999999999999995E-07
       SCF_GUESS  RESTART
       &OT  T
         MINIMIZER  DIIS
         PRECONDITIONER  FULL_KINETIC
       &END OT
       &OUTER_SCF  T
         EPS_SCF     9.9999999999999995E-07
         MAX_SCF  30
       &END OUTER_SCF
       &PRINT
         &RESTART  SILENT
           ADD_LAST  NUMERIC
           &EACH
             QS_SCF  50
           &END EACH
         &END RESTART
       &END PRINT
     &END SCF
     &QS
       MAP_CONSISTENT  T
       EXTRAPOLATION  ASPC
       EXTRAPOLATION_ORDER  4
     &END QS
     &MGRID
       NGRIDS  5
       CUTOFF     4.6000000000000000E+02
     &END MGRID
     &XC
       DENSITY_CUTOFF     1.0000000000000000E-10
       GRADIENT_CUTOFF     1.0000000000000000E-10
       TAU_CUTOFF     1.0000000000000000E-10
       &XC_GRID
         XC_DERIV  SPLINE2_SMOOTH
       &END XC_GRID
       &XC_FUNCTIONAL  NO_SHORTCUT
         &LIBXC  T
           FUNCTIONAL XC_GGA_X_OPTB88_VDW
         &END LIBXC
         &VWN  T
         &END VWN
       &END XC_FUNCTIONAL
       &VDW_POTENTIAL
         POTENTIAL_TYPE  NON_LOCAL
         &NON_LOCAL
           TYPE  DRSLL
           VERBOSE_OUTPUT  T
           KERNEL_FILE_NAME /users/gtocci/scratch_daint_3000/data_cp2k//vdW_kernel_table.dat
         &END NON_LOCAL
       &END VDW_POTENTIAL
     &END XC
     &REAL_TIME_PROPAGATION
       INITIAL_WFN  SCF_WFN
     &END REAL_TIME_PROPAGATION
     &PRINT
       &MULLIKEN  SILENT
         FILENAME =GRAS.mulliken
       &END MULLIKEN
     &END PRINT
   &END DFT
   &SUBSYS
     &CELL
       A     2.5632000000000001E+01    0.0000000000000000E+00    0.0000000000000000E+00
       B     0.0000000000000000E+00    2.4664400000000022E+01    0.0000000000000000E+00
       C     0.0000000000000000E+00    0.0000000000000000E+00    5.0000000000000028E+01
       MULTIPLE_UNIT_CELL  1 1 1
     &END CELL
     &COORD
C    2.7464119402995943E+00    3.2610797705606087E-01    3.4385796197141705E+00
C    4.1529608490557441E+00    2.8104485211432129E-01    3.3312056999070956E+00
C    4.8993498322371991E+00    1.5182635194718437E+00    3.3821364778294321E+00
C    6.3232731715571147E+00    1.5196891073639298E+00    3.2789041123571150E+00
C    2.7183513167790538E+00    2.7889955183413355E+00    3.4743426149613867E+00
C    4.1762229685842689E+00    2.7368824174422937E+00    3.4778270758941492E+00
C    4.8869624414822264E+00    3.9973902494650462E+00    3.5045730660929717E+00
C    6.3337233045666066E+00    3.9841735764841291E+00    3.4531786851909101E+00
C    2.7717993566345100E+00    5.2924530836133536E+00    3.5923319414099661E+00
C    4.2101002757810804E+00    5.2359619797083887E+00    3.5804787976469998E+00
C    4.9396841739199902E+00    6.4431270070099096E+00    3.7185853712692221E+00
C    6.3450206643467286E+00    6.4577442693730323E+00    3.6969990620099167E+00
C    2.8258410744747327E+00    7.6726596188486429E+00    3.6929931686841320E+00
C    4.2618133380405840E+00    7.6773948193023029E+00    3.7788464060537748E+00
C    4.9641188909372334E+00    8.9322843512625418E+00    3.7762122334806247E+00
C    6.3675568816151609E+00    8.9785504020107396E+00    3.7514747184580401E+00
C    2.7604064086228086E+00    1.0123118620682614E+01    3.9346054272816948E+00
C    4.2072150051783996E+00    1.0124695584201566E+01    3.8455280529006690E+00
C    4.8798905233462895E+00   -9.5954690753091398E-01    3.2642425368529118E+00
C    6.3257572543530163E+00   -9.8917225696641631E-01    3.3066759999935749E+00
C    7.0221897774753508E+00    2.6404988879165248E-01    3.3052103379565105E+00
C    8.4435735208131941E+00    2.9784619324728973E-01    3.2682411705650378E+00
C    9.1817502420812360E+00    1.5216896936638784E+00    3.3551460391982375E+00
C    1.0622374777314608E+01    1.5591106088835549E+00    3.5092041326353582E+00
C    7.0173712256926768E+00    2.7552116339436807E+00    3.3580641035602712E+00
C    8.4866939015064666E+00    2.7629018293022432E+00    3.4059799917215212E+00
C    9.2419850219257587E+00    4.0198191875689382E+00    3.5236761669155783E+00
C    1.0635801864827751E+01    4.0018234074897645E+00    3.5916083502302198E+00
C    7.0652887949429504E+00    5.2424724355753254E+00    3.5790534628816619E+00
C    8.5040653540789037E+00    5.2521791776567541E+00    3.6047322276192020E+00
C    9.2162193549198026E+00    6.4880136695263424E+00    3.7003532720455574E+00
C    1.0629163139097203E+01    6.5042577723368682E+00    3.6682560265325215E+00
C    7.0679137126639748E+00    7.6898436298083466E+00    3.7808254952056894E+00
C    8.5050853246106346E+00    7.7136247538681877E+00    3.8147286147884345E+00
C    9.1969478503486091E+00    8.9669613642371591E+00    3.7563629374208380E+00
C    1.0639173175793479E+01    8.9366078885319773E+00    3.7315601363166775E+00
C    7.0442984937823478E+00    1.0197948386277995E+01    3.7098694911947665E+00
C    8.4767711659200486E+00    1.0164197555995610E+01    3.6576943827703063E+00
C    9.1847873647246931E+00   -9.0901419788498317E-01    3.3257863832257848E+00
C    1.0635569617028800E+01   -8.7467333893954435E-01    3.3264835491734139E+00
C    1.1352399162760527E+01    3.2797337073888427E-01    3.4843185236274721E+00
C    1.2756003873527982E+01    3.1604113792820254E-01    3.5479888922024818E+00
C    1.3452594934574803E+01    1.5293774586850128E+00    3.7093913819275848E+00
C    1.4886776650287601E+01    1.5090723213045913E+00    3.6329933102179268E+00
C    1.1318404872950309E+01    2.7707662183563384E+00    3.5638258007112440E+00
C    1.2742821239736440E+01    2.7827817577904153E+00    3.6087445850204443E+00
C    1.3482829510897803E+01    4.0217362694053298E+00    3.5518845471411766E+00
C    1.4879944168579884E+01    3.9615694176586849E+00    3.5784850634180390E+00
C    1.1337550238669897E+01    5.2573885193526895E+00    3.5323060914508178E+00
C    1.2749391965031613E+01    5.2720338669716158E+00    3.5248380242210051E+00
C    1.3522987487313822E+01    6.4705306426919806E+00    3.5750420169065675E+00
C    1.4938571944985856E+01    6.4729867000147436E+00    3.6287544796600564E+00
C    1.1369013230466708E+01    7.7208412859023623E+00    3.6704693455140096E+00
C    1.2793642141916239E+01    7.7035758600124531E+00    3.6514499940357408E+00
C    1.3491499543786563E+01    8.9128768426442715E+00    3.6202765153144258E+00
C    1.4909790895822894E+01    8.9207338421465163E+00    3.6787393731965801E+00
C    1.1350470095751303E+01    1.0172800680923613E+01    3.5990733320350632E+00
C    1.2791070889050763E+01    1.0150943779889284E+01    3.6308464304914723E+00
C    1.3459016298130413E+01   -9.2281966209696864E-01    3.4284404193661029E+00
C    1.4902755855532238E+01   -9.1506753564182564E-01    3.4528029677454857E+00
C    2.7421438377593645E+00    1.2575753180100985E+01    4.0108048019732170E+00
C    4.1705408049196064E+00    1.2610827829889972E+01    3.9936372978596855E+00
C    4.8959388520223603E+00    1.3835324967641991E+01    3.8574677675714102E+00
C    6.3119901106176135E+00    1.3848738190364218E+01    3.6392862080836212E+00
C    2.7499126410629313E+00    1.5051587281447212E+01    3.9619266215193232E+00
C    4.1746448105088723E+00    1.5059223714983313E+01    3.8633278974913741E+00
C    4.8808214399865433E+00    1.6268771615278432E+01    3.6986456819065552E+00
C    6.3045243600125591E+00    1.6302890475813129E+01    3.5408955630299985E+00
C    2.7662056838026010E+00    1.7528512909897461E+01    3.8705299527710850E+00
C    4.1745885137501455E+00    1.7542113859034306E+01    3.6274299537992385E+00
C    4.8707560041952567E+00    1.8787602596399601E+01    3.5211323057078734E+00
C    6.2928408652251591E+00    1.8754382942206764E+01    3.3262250918351608E+00
C    2.7196249080112618E+00    2.0025083589532080E+01    3.6800476469512260E+00
C    4.1600675760201105E+00    2.0035715526524559E+01    3.5650077172060803E+00
C    4.8845524864341598E+00    2.1247163461954273E+01    3.3797784007533522E+00
C    6.3137278742591549E+00    2.1237615494908450E+01    3.2567425009958164E+00
C    2.7528158806582907E+00    2.2517282544896130E+01    3.5658319179607312E+00
C    4.1644599991329931E+00    2.2481904908887152E+01    3.3997009437592438E+00
C    4.9146192931641792E+00    1.1390045702962626E+01    3.9471708503070735E+00
C    6.3320238754866320E+00    1.1427362646576618E+01    3.7753265274262260E+00
C    7.0384006781866999E+00    1.2629988027971656E+01    3.6552066106790120E+00
C    8.4929530662793589E+00    1.2609728006846909E+01    3.4656227272762390E+00
C    9.1868987697305773E+00    1.3876685422110318E+01    3.3484430043675752E+00
C    1.0626012490712712E+01    1.3881903178177268E+01    3.3317955014465892E+00
C    7.0206243352817816E+00    1.5073405903120301E+01    3.5182611235619450E+00
C    8.4369160604430924E+00    1.5088433353876235E+01    3.3113068435935284E+00
C    9.1714189746665191E+00    1.6294746447416458E+01    3.1465803085452113E+00
C    1.0605535464153281E+01    1.6286501033187378E+01    3.1168697695251093E+00
C    7.0050384516301243E+00    1.7518897427793647E+01    3.3490798040530225E+00
C    8.4284878056743739E+00    1.7519185090850740E+01    3.2104147024072409E+00
C    9.1545132625770087E+00    1.8776200805866175E+01    3.1643386192030163E+00
C    1.0591149807666413E+01    1.8738492774987314E+01    3.1966905456304642E+00
C    7.0498720725660267E+00    2.0006686307863493E+01    3.2194370275009856E+00
C    8.4686918575364363E+00    2.0019553496547545E+01    3.1537739033427972E+00
C    9.1614482740788681E+00    2.1272827004017817E+01    3.3253524584483070E+00
C    1.0605341436495214E+01    2.1287469210465655E+01    3.2141923897276761E+00
C    7.0215339210550685E+00    2.2473468588818921E+01    3.3036410453679736E+00
C    8.4925829024720105E+00    2.2514931058212746E+01    3.3766871634336129E+00
C    9.2158940747202944E+00    1.1383621357619758E+01    3.5006083137700825E+00
C    1.0639854804189339E+01    1.1373561251223109E+01    3.4382142288315674E+00
C    1.1308209749185300E+01    1.2641129566259490E+01    3.3862019197740052E+00
C    1.2753159198307330E+01    1.2658760631067841E+01    3.4013257293968890E+00
C    1.3460629778647551E+01    1.3901466695230233E+01    3.3573083116099287E+00
C    1.4886771401309556E+01    1.3889773083202458E+01    3.4455437527807478E+00
C    1.1366399200665253E+01    1.5076314954658042E+01    3.2520910409876738E+00
C    1.2774495659194228E+01    1.5153250897720049E+01    3.2476278326688717E+00
C    1.3484713751367943E+01    1.6346305619376501E+01    3.2751100219003786E+00
C    1.4870591339742365E+01    1.6335987313765241E+01    3.4360061738614047E+00
C    1.1321578550239883E+01    1.7545459226040727E+01    3.1531353562359508E+00
C    1.2767513844603302E+01    1.7559763429133884E+01    3.2926789166070423E+00
C    1.3473031619293275E+01    1.8774911321083358E+01    3.3810807868122073E+00
C    1.4876331199753430E+01    1.8820615324128291E+01    3.5814174613093526E+00
C    1.1313663046002411E+01    2.0017256294746634E+01    3.2308618354156531E+00
C    1.2709594936054319E+01    1.9992706536335607E+01    3.2953249007270817E+00
C    1.3407848099758265E+01    2.1247127876523443E+01    3.3341232564469023E+00
C    1.4823857707615002E+01    2.1265550753529610E+01    3.4957314029214408E+00
C    1.1311181269396698E+01    2.2531172504285546E+01    3.2544893983404135E+00
C    1.2720426950019656E+01    2.2510053753752885E+01    3.2931394050173357E+00
C    1.3427320621127691E+01    1.1405302267315227E+01    3.5752397980465953E+00
C    1.4872023539835530E+01    1.1395422587223958E+01    3.5773520173011097E+00
C    1.5615176737231206E+01    3.1145139048949150E-01    3.5096111137455264E+00
C    1.7023518494559085E+01    3.3506860471828470E-01    3.5086404130950384E+00
C    1.7719958563507518E+01    1.5760578150036926E+00    3.6579176627359842E+00
C    1.9146373326020690E+01    1.5665357992842679E+00    3.7614482826056306E+00
C    1.5560711831891242E+01    2.7335491277612971E+00    3.6357808188997760E+00
C    1.6967600492179574E+01    2.7736543161701213E+00    3.7438122645241450E+00
C    1.7708591253349912E+01    3.9849291589295417E+00    3.7724972466566817E+00
C    1.9119653431179948E+01    4.0106901499003751E+00    3.7576379809181391E+00
C    1.5619422324970918E+01    5.2173309926322347E+00    3.6016390464276182E+00
C    1.7017828299227780E+01    5.2100166341600538E+00    3.6676737562502768E+00
C    1.7736336174469820E+01    6.4468544739278704E+00    3.6800908761957936E+00
C    1.9159413928571492E+01    6.4486608804434651E+00    3.6946850808001281E+00
C    1.5654166688519739E+01    7.6989021435511251E+00    3.7142116172776021E+00
C    1.7076179702579203E+01    7.7163134453059223E+00    3.6992408438631412E+00
C    1.7743524946071588E+01    9.0194944215820119E+00    3.6521059665974462E+00
C    1.9158635189586072E+01    8.9737622370399599E+00    3.6600122007425369E+00
C    1.5565849126094495E+01    1.0189701341291162E+01    3.6134933840155932E+00
C    1.6995721634361619E+01    1.0225237870091558E+01    3.6341355611859467E+00
C    1.7725805244899892E+01   -9.1621309000580642E-01    3.4959638013961736E+00
C    1.9137982000918527E+01   -9.2376005706411635E-01    3.6166983711687695E+00
C    1.9862061853859924E+01    3.0311608930197964E-01    3.6706602608836669E+00
C    2.1280317737870604E+01    3.7168868259981547E-01    3.7278176954434983E+00
C    2.1974812056439898E+01    1.5929180551249920E+00    3.6426049026628644E+00
C    2.3403057355602868E+01    1.5893396925887477E+00    3.6231398591232478E+00
C    1.9870941685662288E+01    2.7966110015903283E+00    3.7277830075885170E+00
C    2.1252194141847163E+01    2.8228245963838616E+00    3.7617419162681927E+00
C    2.1989190378458996E+01    4.0369942180663010E+00    3.6884485763745212E+00
C    2.3402007223997639E+01    4.0378015160948566E+00    3.6412190553035000E+00
C    1.9851752073610037E+01    5.2090346346254170E+00    3.6967463064413417E+00
C    2.1282950687117236E+01    5.2380430096239721E+00    3.6550377459389294E+00
C    2.1977918900516467E+01    6.4880972710754694E+00    3.6652843933553458E+00
C    2.3383972360967281E+01    6.5196513061450529E+00    3.6666546131494586E+00
C    1.9858363924642472E+01    7.7356941117527453E+00    3.6436696709791736E+00
C    2.1271852395486167E+01    7.7216722871965953E+00    3.7098342622484788E+00
C    2.1976803758982605E+01    8.9464151244467160E+00    3.8063787735837740E+00
C    2.3424015033506141E+01    8.9802675528619123E+00    3.9049262043847643E+00
C    1.9864823886292829E+01    1.0250446455858532E+01    3.7954377198414901E+00
C    2.1261271694277355E+01    1.0196383460713927E+01    3.8623080512470174E+00
C    2.1990708322288235E+01   -9.2486537248922851E-01    3.7280407905005308E+00
C    2.3430972549965752E+01   -8.9268751026104165E-01    3.7023202049254205E+00
C    2.4116757688515303E+01    3.4809272667911684E-01    3.6370931763006307E+00
C    2.5517935692382171E+01    3.5179033426442102E-01    3.5752704837634774E+00
C    2.6217638556362143E+01    1.5940205702150645E+00    3.5295337731925178E+00
C    2.7653696429216009E+01    1.5537448864875134E+00    3.4760526216550374E+00
C    2.4095099002398896E+01    2.8299480875479057E+00    3.6130822717640161E+00
C    2.5532185486026588E+01    2.8162690526783440E+00    3.5561846015295804E+00
C    2.6267732135242486E+01    4.0713851348213481E+00    3.5248262211533685E+00
C    2.7690226571783136E+01    4.0661587289782668E+00    3.5075305055143131E+00
C    2.4123319258549078E+01    5.2785173027263186E+00    3.5818586615285333E+00
C    2.5549673952549778E+01    5.2970107785648946E+00    3.5376120327644553E+00
C    2.6266609516332188E+01    6.5156006888690357E+00    3.5871273497488785E+00
C    2.7670135559850095E+01    6.4884751156443032E+00    3.6136839237596705E+00
C    2.4136953087263166E+01    7.7394660107830218E+00    3.8164192943358111E+00
C    2.5532263399231098E+01    7.7469658539232098E+00    3.6745993475950991E+00
C    2.6281103108689059E+01    8.9393656419878784E+00    3.7543202730426226E+00
C    2.7697364215548767E+01    8.8810656516698430E+00    3.8722967467891443E+00
C    2.4129574533165648E+01    1.0203816759096728E+01    3.8248778044310914E+00
C    2.5553060331262319E+01    1.0176146484106839E+01    3.7921852992279224E+00
C    2.6255174018128649E+01   -8.8448050991625538E-01    3.6769575464056348E+00
C    2.7692721430477508E+01   -8.7839634866153204E-01    3.6107670230014404E+00
C    1.5581601489407650E+01    1.2635889220822445E+01    3.5073043554303887E+00
C    1.7007565442619125E+01    1.2674807280071288E+01    3.4956263135217931E+00
C    1.7696060868261171E+01    1.3917997524419993E+01    3.6257107474802450E+00
C    1.9146479528276952E+01    1.3909897172379758E+01    3.7251712458331667E+00
C    1.5594124851121801E+01    1.5138019877381417E+01    3.4874776199797535E+00
C    1.7006717103270880E+01    1.5145014577378882E+01    3.6669049851083297E+00
C    1.7699998518908675E+01    1.6368365701850689E+01    3.8345113717929022E+00
C    1.9114001628421434E+01    1.6332669085779777E+01    3.9541187710865797E+00
C    1.5566587198306019E+01    1.7580906419756882E+01    3.6316688026220887E+00
C    1.7010479976482987E+01    1.7594980429424684E+01    3.7448148677722437E+00
C    1.7714582830678761E+01    1.8850676809436489E+01    3.7888740553741567E+00
C    1.9149042002178856E+01    1.8812457002564567E+01    3.9030605300005967E+00
C    1.5564428805713577E+01    2.0074061396698987E+01    3.6293595793052464E+00
C    1.6995962982284411E+01    2.0065721023266569E+01    3.7561085116637964E+00
C    1.7748143956411184E+01    2.1316619020938834E+01    3.7010565162965947E+00
C    1.9165221615377970E+01    2.1276957570479595E+01    3.7480836652739078E+00
C    1.5593175948652489E+01    2.2496801832800045E+01    3.4882944253126213E+00
C    1.6988235369788793E+01    2.2496507065341401E+01    3.5243822148043851E+00
C    1.7714267249911746E+01    1.1469375021838754E+01    3.5233877375653049E+00
C    1.9141978429509006E+01    1.1454893831051523E+01    3.6395283209373614E+00
C    1.9875680760733804E+01    1.2712285300560628E+01    3.7138453204447939E+00
C    2.1283749941193925E+01    1.2691325985901935E+01    3.7874356928102002E+00
C    2.1967447196013264E+01    1.3907809977034510E+01    3.7599966619288279E+00
C    2.3400393318087751E+01    1.3897396921492392E+01    3.7810678822058321E+00
C    1.9848681446857235E+01    1.5136484819170779E+01    3.8656524832943382E+00
C    2.1257429304090628E+01    1.5140803781767808E+01    3.8394140198333204E+00
C    2.1969101416403849E+01    1.6332641262405314E+01    3.9785441642991799E+00
C    2.3423667131514424E+01    1.6357828486969279E+01    4.0366364169946367E+00
C    1.9837851988148991E+01    1.7553241657454532E+01    3.9868345464372750E+00
C    2.1271788603601028E+01    1.7585015126742299E+01    3.9581142043966442E+00
C    2.1975452458945814E+01    1.8801897884996595E+01    3.9233493309175951E+00
C    2.3390742043087787E+01    1.8778441741622597E+01    3.9223604347690499E+00
C    1.9837245425387884E+01    2.0048951665085202E+01    3.8765714977956209E+00
C    2.1292478344198390E+01    2.0034071377307644E+01    3.9033381112973742E+00
C    2.1998702564009861E+01    2.1271829441657427E+01    3.8506875136344489E+00
C    2.3430284161992752E+01    2.1264389081349371E+01    3.7770505170907809E+00
C    1.9864596292194790E+01    2.2521268227712888E+01    3.7336725786530947E+00
C    2.1299679577675889E+01    2.2517721115871762E+01    3.7992237313318289E+00
C    2.1970661513685400E+01    1.1447133656420034E+01    3.8360992540731869E+00
C    2.3420246034395930E+01    1.1441840005018589E+01    3.8680592204266291E+00
C    2.4134528593223298E+01    1.2649038035902421E+01    3.8618247897931330E+00
C    2.5530113125463814E+01    1.2634816869279570E+01    3.7723271953681712E+00
C    2.6260184550213225E+01    1.3886142837921049E+01    3.7811815825957193E+00
C    2.7688012363670037E+01    1.3831278828347362E+01    3.9692438888857384E+00
C    2.4135592959665328E+01    1.5125568884630027E+01    3.9402140342301748E+00
C    2.5558704459392171E+01    1.5096872946703931E+01    3.8936205196204545E+00
C    2.6260688140256647E+01    1.6347314743677266E+01    4.0169604638525884E+00
C    2.7670584518884482E+01    1.6291828773914244E+01    3.9773255201284887E+00
C    2.4124100036193624E+01    1.7583411780077512E+01    4.0113679411720211E+00
C    2.5570357341486453E+01    1.7563995799316469E+01    4.0111429114686832E+00
C    2.6229936584399109E+01    1.8790915214458941E+01    3.9073703856155633E+00
C    2.7673913128637803E+01    1.8777460424436796E+01    3.8404715395129934E+00
C    2.4092039828253277E+01    2.0023333707325413E+01    3.8273283846004635E+00
C    2.5517766729906047E+01    2.0054972513193437E+01    3.8851111702354961E+00
C    2.6211262605072271E+01    2.1298267249837522E+01    3.8650563312097259E+00
C    2.7650441786408152E+01    2.1267092118004371E+01    3.6995360356980838E+00
C    2.4121027604434776E+01    2.2514095143756336E+01    3.6917807289136224E+00
C    2.5540118029312815E+01    2.2546925648089463E+01    3.7405155730906485E+00
C    2.6228266995091257E+01    1.1393038479114381E+01    3.8091315691159520E+00
C    2.7666804031686787E+01    1.1335750072703803E+01    3.9086766032923408E+00
O    4.2848962864501112E+02    9.7215038305208950E+01    9.7875186499138600E+00
H    4.2796447924077518E+02    9.7988171189286533E+01    1.0151826234620160E+01
H    4.2824613464765781E+02    9.7052871576726233E+01    8.8054400071524110E+00
O    4.1930251829063218E+02    8.1994953403064457E+01    1.4183278416677881E+01
H    4.1911727474523468E+02    8.2952845554991029E+01    1.4053820269161280E+01
H    4.1956614199559345E+02    8.1653105823917656E+01    1.3259157895714376E+01
O    3.5987484380998598E+02    1.3713788258613903E+02    6.9395392536053402E+00
H    3.5966954429710080E+02    1.3750750695385744E+02    7.7819623109112941E+00
H    3.5932738508629336E+02    1.3625638971999012E+02    6.9526862538688174E+00
O    4.1752504623231766E+02    3.8054598612016214E+01    1.7034146232739847E+01
H    4.1691732268754157E+02    3.8763574826375958E+01    1.6643098114326214E+01
H    4.1771157141418502E+02    3.8447255222528831E+01    1.7947976487802336E+01
O    4.0485350974278452E+02    1.9308340879934821E+02    1.7630528328770119E+01
H    4.0564733744514814E+02    1.9250636799775006E+02    1.7844872230908486E+01
H    4.0400469254309866E+02    1.9268861775114027E+02    1.8067643539062452E+01
O    3.1013810304166850E+02    3.0809840364471461E+00    1.5357063453355039E+01
H    3.0999349207785286E+02    2.8476729339519480E+00    1.4395365729384901E+01
H    3.0931140158283949E+02    3.1970453617416346E+00    1.5855585010862248E+01
O    3.6158793922724391E+02    3.4927625439323165E+01    1.4287707440476117E+01
H    3.6240938976186328E+02    3.5497399771689686E+01    1.4249757755772206E+01
H    3.6162313505732203E+02    3.4287622357486413E+01    1.5035612333346979E+01
O    3.7278602377218346E+02   -5.4326708859769752E+01    1.3192830211496643E+01
H    3.7224294451525537E+02   -5.4060581003646590E+01    1.2400704860676608E+01
H    3.7217518841636144E+02   -5.4509367924595125E+01    1.3919204103256712E+01
O    3.8387797803500575E+02    1.7428945482976442E+02    1.9929596901231477E+01
H    3.8443860616436763E+02    1.7502386468261912E+02    2.0212735648379791E+01
H    3.8446702172941167E+02    1.7374588240562579E+02    1.9311358882076213E+01
O    4.0983830814272090E+02    1.6686106436821376E+02    1.0094132716856235E+01
H    4.0909036838292531E+02    1.6646645933850300E+02    1.0626780699807622E+01
H    4.0950905813568409E+02    1.6780406908061607E+02    1.0030705876635501E+01
O    4.2772827746290727E+02    1.5103555871268802E+02    9.1789658352931394E+00
H    4.2760354688134260E+02    1.5087142339788136E+02    8.2232114897239708E+00
H    4.2855022995777762E+02    1.5151367702813951E+02    9.4249788405057693E+00
O    3.1248126716580316E+02    6.1225488750096886E+01    1.4823637749855656E+01
H    3.1239652274145362E+02    6.2112092323982210E+01    1.4253445753595795E+01
H    3.1336830804704533E+02    6.0771961673657195E+01    1.4577126417206966E+01
O    3.7713214877669265E+02   -3.2500705202946818E+01    1.7239592788851194E+01
H    3.7632959729557314E+02   -3.2633138529094822E+01    1.7834911082721977E+01
H    3.7736975553529805E+02   -3.3460225630860997E+01    1.7023163993203148E+01
O    4.2089500645938227E+02   -8.4952119354116377E+01    1.8050534923659150E+01
H    4.2085426237392079E+02   -8.5850043630780959E+01    1.7644920853669781E+01
H    4.2098714424322520E+02   -8.4376555472757076E+01    1.7315582210141439E+01
O    3.3728188792198262E+02    2.4043832538474331E+02    7.3015086280010575E+00
H    3.3726509284839864E+02    2.4065679271369777E+02    8.3289068376838316E+00
H    3.3767665818887610E+02    2.4128272794898413E+02    6.9353785606537004E+00
O    4.4871457271388459E+02    1.5526182986202338E+02    6.7689930475369584E+00
H    4.4846868361849982E+02    1.5433737530107084E+02    6.5241852220939514E+00
H    4.4853199812102673E+02    1.5524929264680156E+02    7.7322345055593811E+00
O    3.5404218637388448E+02    1.3205635701091794E+02    1.3213180433893939E+01
H    3.5395048826837382E+02    1.3258458913565198E+02    1.2375387509549634E+01
H    3.5317928092984152E+02    1.3159764761014961E+02    1.3285142509208747E+01
O    2.9879949667921522E+02    4.5156717508442263E+01    1.7995092541013673E+01
H    2.9792667353926896E+02    4.5438977921682159E+01    1.8345509325899044E+01
H    2.9923159131881573E+02    4.4767813905857871E+01    1.8826033017936826E+01
O    3.7682654943483442E+02    9.5918880308492561E+01    7.0024760090668554E+00
H    3.7677655568891879E+02    9.4933945781731126E+01    7.1623846318863320E+00