 # Version information for this restart file 
 # current date 2020-01-19 14:05:19.139
 # current working dir /scratch/snx3000/gtocci/gtocci/MEMBRANES/AIMD_US_IONS_BN/aimd_us_iodide/us_21
 # Program compiled at                              Fri Nov 22 15:19:42 CET 2019
 # Program compiled on                                                  daint102
 # Program compiled for                                   CRAY_XC50-gfortran_gpu
 # Source code revision number                                       git:a698b45
 &GLOBAL
   PRINT_LEVEL  LOW
   PROJECT_NAME BNS
   RUN_TYPE  MD
   WALLTIME 86400
 &END GLOBAL
 &MOTION
   &MD
     ENSEMBLE  NVT
     STEPS  2000
     TIMESTEP     9.9999999999999989E-01
     STEP_START_VAL  44744
     TIME_START_VAL     4.4743999999984910E+04
     ECONS_START_VAL    -8.4830842639256771E+03
     TEMPERATURE     3.0000000000000000E+02
     TEMP_KIND  T
     &BAROSTAT
       PRESSURE     1.0000000000000000E+00
       TIMECON     9.9999999999999986E+01
       VIRIAL  Z
     &END BAROSTAT
     &THERMOSTAT
       TYPE  NOSE
       REGION  GLOBAL
       &NOSE
         LENGTH  4
         TIMECON     9.9999999999999986E+01
         MTS  2
         &COORD
               3.0585544540100418E-01   -5.9239642635587124E+00    1.3264062522384803E+01    1.0069237215980412E+01
         &END COORD
         &VELOCITY
               4.7982240014163491E-06    9.0752217758061529E-05    2.5358478424111695E-05   -2.4347777696202824E-04
         &END VELOCITY
         &MASS
               7.0145132684705392E+07    1.6237299232570693E+04    1.6237299232570693E+04    1.6237299232570693E+04
         &END MASS
         &FORCE
              -9.5980621587719985E-11    4.0949145562652344E-08   -5.0274048822098454E-08   -5.7866961422118931E-08
         &END FORCE
       &END NOSE
     &END THERMOSTAT
     &AVERAGES  T
       &RESTART_AVERAGES
         ITIMES_START  1
         AVECPU     2.3955026565106063E+01
         AVEHUGONIOT     0.0000000000000000E+00
         AVETEMP_BARO     0.0000000000000000E+00
         AVEPOT    -8.4857946486105102E+03
         AVEKIN     2.0522872700006607E+00
         AVETEMP     3.0002791207415015E+02
         AVEKIN_QM     0.0000000000000000E+00
         AVETEMP_QM     0.0000000000000000E+00
         AVEVOL     2.2086622704881470E+05
         AVECELL_A     4.9287836997924941E+01
         AVECELL_B     4.7426456757033307E+01
         AVECELL_C     9.4486306644279878E+01
         AVEALPHA     9.0000000000000000E+01
         AVEBETA     9.0000000000000000E+01
         AVEGAMMA     9.0000000000000000E+01
         AVE_ECONS     5.5434914435595090E+01
         AVE_PRESS     0.0000000000000000E+00
         AVE_PXX     0.0000000000000000E+00
       &END RESTART_AVERAGES
     &END AVERAGES
     &PRINT
       &TEMP_KIND  SILENT
       &END TEMP_KIND
     &END PRINT
   &END MD
   &FREE_ENERGY
     &METADYN
       MIN_DISP    -1.0000000000000000E+00
       OLD_HILL_NUMBER  0
       OLD_HILL_STEP  0
       DO_HILLS  F
       STEP_START_VAL  44744
       NHILLS_START_VAL  0
       &METAVAR
         SCALE     1.0000000000000000E+00
         COLVAR  1
       &END METAVAR
       &PRINT
         &COLVAR  SILENT
           COMMON_ITERATION_LEVELS  3
           &EACH
             MD  1
           &END EACH
         &END COLVAR
       &END PRINT
     &END METADYN
   &END FREE_ENERGY
   &CONSTRAINT
     &COLLECTIVE
       COLVAR  1
       INTERMOLECULAR  T
       &RESTRAINT
         K     4.4625385281452931E-04
       &END RESTRAINT
     &END COLLECTIVE
     &COLVAR_RESTART
           2.0064458139251471E+01
     &END COLVAR_RESTART
   &END CONSTRAINT
   &PRINT
     &TRAJECTORY  SILENT
       &EACH
         MD  1
       &END EACH
     &END TRAJECTORY
     &VELOCITIES  SILENT
       &EACH
         MD  1
       &END EACH
     &END VELOCITIES
     &FORCES  SILENT
       UNIT eV*angstrom^-1
       &EACH
         MD  1
       &END EACH
     &END FORCES
     &RESTART  SILENT
       &EACH
         MD  1
       &END EACH
     &END RESTART
     &RESTART_HISTORY  SILENT
       &EACH
         MD  100
       &END EACH
     &END RESTART_HISTORY
   &END PRINT
 &END MOTION
 &FORCE_EVAL
   METHOD  QS
   &DFT
     BASIS_SET_FILE_NAME /users/gtocci/scratch_daint_3000/data_cp2k//BASIS_MOLOPT
     POTENTIAL_FILE_NAME /users/gtocci/scratch_daint_3000/data_cp2k//GTH_POTENTIALS
     WFN_RESTART_FILE_NAME ./BNS-RESTART.wfn
     CHARGE  -1
     &SCF
       MAX_SCF  10
       EPS_SCF     9.9999999999999995E-07
       SCF_GUESS  RESTART
       &OT  T
         MINIMIZER  DIIS
         PRECONDITIONER  FULL_KINETIC
       &END OT
       &OUTER_SCF  T
         EPS_SCF     9.9999999999999995E-07
         MAX_SCF  30
       &END OUTER_SCF
       &PRINT
         &RESTART  SILENT
           ADD_LAST  NUMERIC
           &EACH
             QS_SCF  50
           &END EACH
         &END RESTART
       &END PRINT
     &END SCF
     &QS
       MAP_CONSISTENT  T
       EXTRAPOLATION  ASPC
       EXTRAPOLATION_ORDER  4
     &END QS
     &MGRID
       NGRIDS  5
       CUTOFF     4.6000000000000000E+02
     &END MGRID
     &XC
       DENSITY_CUTOFF     1.0000000000000000E-10
       GRADIENT_CUTOFF     1.0000000000000000E-10
       TAU_CUTOFF     1.0000000000000000E-10
       &XC_GRID
         XC_DERIV  SPLINE2_SMOOTH
       &END XC_GRID
       &XC_FUNCTIONAL  NO_SHORTCUT
         &LIBXC  T
           FUNCTIONAL XC_GGA_X_OPTB88_VDW
         &END LIBXC
         &VWN  T
         &END VWN
       &END XC_FUNCTIONAL
       &VDW_POTENTIAL
         POTENTIAL_TYPE  NON_LOCAL
         &NON_LOCAL
           TYPE  DRSLL
           VERBOSE_OUTPUT  T
           KERNEL_FILE_NAME /users/gtocci/scratch_daint_3000/data_cp2k//vdW_kernel_table.dat
           CUTOFF     3.6000000000000000E+02
         &END NON_LOCAL
       &END VDW_POTENTIAL
     &END XC
     &REAL_TIME_PROPAGATION
       INITIAL_WFN  SCF_WFN
     &END REAL_TIME_PROPAGATION
     &PRINT
       &MULLIKEN  SILENT
         FILENAME =BNS.mulliken
       &END MULLIKEN
     &END PRINT
   &END DFT
   &SUBSYS
     &CELL
       A     2.6082000000000019E+01    0.0000000000000000E+00    0.0000000000000000E+00
       B     0.0000000000000000E+00    2.5097000000000001E+01    0.0000000000000000E+00
       C     0.0000000000000000E+00    0.0000000000000000E+00    5.0000000000000028E+01
       MULTIPLE_UNIT_CELL  1 1 1
     &END CELL
     &COORD
B   -1.2385962936329244E+01    7.5447644919815611E+00   -4.0676197253093662E+01
B   -1.0183877584157912E+01    8.7363750053468952E+00   -4.0431203865103974E+01
B   -1.2420704432007110E+01    1.0042980904830094E+01   -4.0487815377581882E+01
B   -1.0225883926445491E+01    1.1281840567460060E+01   -4.0326937205308390E+01
B   -1.2349546746073505E+01    1.2550316559330319E+01   -4.0614969195348209E+01
B   -1.0192930723204853E+01    1.3850205802770159E+01   -4.0483157849994470E+01
B   -1.2324995503957762E+01    1.5003636843075400E+01   -4.0602836663487807E+01
B   -1.0148490158568551E+01    1.6318468959666699E+01   -4.0413266882678322E+01
B   -1.2323019001636645E+01    1.7608500574134137E+01   -4.0400696523806204E+01
B   -1.0165733506575359E+01    1.8890396910559939E+01   -4.0368218346477455E+01
B   -7.9834791043606943E+00    7.5967661965836779E+00   -4.0546281943624869E+01
B   -5.8370500947625574E+00    8.7541840971150791E+00   -4.0594711574940710E+01
B   -8.0282533610908633E+00    1.0052989430235636E+01   -4.0470219411999111E+01
B   -5.8510520583832122E+00    1.1270229930408606E+01   -4.0352308323363530E+01
B   -8.0422025184075157E+00    1.2581492152097114E+01   -4.0326881067297514E+01
B   -5.8663563637828844E+00    1.3831076547380272E+01   -4.0490234097041103E+01
B   -7.9917194934491649E+00    1.5043655197180795E+01   -4.0387135830853396E+01
B   -5.8218535633665134E+00    1.6355217489875042E+01   -4.0442511354755148E+01
B   -8.0459296745472333E+00    1.7572140381419715E+01   -4.0418871659066433E+01
B   -5.8578941120604773E+00    1.8833384692390101E+01   -4.0586314140650295E+01
B   -3.6596639705425495E+00    7.4385014822527040E+00   -4.0874224422154931E+01
B   -1.5416927208959288E+00    8.8003192542534023E+00   -4.1141711821865783E+01
B   -3.7608419256636156E+00    1.0017830559971351E+01   -4.0822074286097639E+01
B   -1.5444550537592203E+00    1.1277047792496102E+01   -4.0869454635494641E+01
B   -3.7164641166301893E+00    1.2522120667641689E+01   -4.0580084234552565E+01
B   -1.5371916070495764E+00    1.3746694387934383E+01   -4.0669102604282301E+01
B   -3.6273703224684417E+00    1.5020316365458459E+01   -4.0523962890235360E+01
B   -1.4644489151402933E+00    1.6279567579616575E+01   -4.0688770986953479E+01
B   -3.6143542027119717E+00    1.7499638713678259E+01   -4.0588351793320307E+01
B   -1.3969110421771047E+00    1.8809327535229443E+01   -4.0801404963091706E+01
N   -1.0932547550372945E+01    7.5242295131931254E+00   -4.0557557272000665E+01
N   -8.7419021974114237E+00    8.8317216938436918E+00   -4.0593186415371534E+01
N   -1.0998551112740259E+01    1.0013504724934927E+01   -4.0399552433407528E+01
N   -8.7451970909133578E+00    1.1292074685907771E+01   -4.0348544845043705E+01
N   -1.0903191168428069E+01    1.2539528771616210E+01   -4.0457622040616272E+01
N   -8.7209620093320019E+00    1.3801113708518072E+01   -4.0437710632024903E+01
N   -1.0901987062629102E+01    1.5067950210402445E+01   -4.0580065680873375E+01
N   -8.7373399459078218E+00    1.6306795987793183E+01   -4.0357299649122616E+01
N   -1.0891294876554745E+01    1.7568458297604099E+01   -4.0248728065545883E+01
N   -8.7340744923728959E+00    1.8831135443440502E+01   -4.0575044370159496E+01
N   -6.5477115722645802E+00    7.4953608936990985E+00   -4.0580826343744043E+01
N   -4.3945617744934857E+00    8.7057693104987592E+00   -4.0730718254988496E+01
N   -6.5647903026773680E+00    1.0019582702130927E+01   -4.0480152091511577E+01
N   -4.4058017107330141E+00    1.1210407443693057E+01   -4.0441630268089149E+01
N   -6.5989174416078384E+00    1.2567641568058331E+01   -4.0320163189981798E+01
N   -4.4131111075044549E+00    1.3776060920471146E+01   -4.0523538332660905E+01
N   -6.5643888925275169E+00    1.5114016683110867E+01   -4.0447205984249564E+01
N   -4.3641183895162392E+00    1.6282697734014995E+01   -4.0539202218884718E+01
N   -6.5380134741249725E+00    1.7551479692485227E+01   -4.0453761965937922E+01
N   -4.3575117874033769E+00    1.8767441598703453E+01   -4.0636764679919217E+01
N   -2.2338453228913306E+00    7.4432958285289192E+00   -4.1065313962770567E+01
N   -6.1081852177415338E-02    8.7294148841926482E+00   -4.1118356319532317E+01
N   -2.2928110905619938E+00    1.0048659104108324E+01   -4.1024357739031643E+01
N   -5.6387859948956946E-02    1.1246153980142150E+01   -4.0726354831631660E+01
N   -2.2888304964565362E+00    1.2519636180572169E+01   -4.0723999473070101E+01
N   -1.8984243332279428E-02    1.3770450840768577E+01   -4.0708010660256534E+01
N   -2.1787818640774859E+00    1.5051178195736268E+01   -4.0578132436258763E+01
N    9.5305457685579634E-03    1.6292759351083891E+01   -4.0672786275960185E+01
N   -2.1468533039268389E+00    1.7558291346688652E+01   -4.0691018820902158E+01
N    1.4485080594110897E-02    1.8823743994798150E+01   -4.0842634449624320E+01
B   -1.2338909909387430E+01    2.0031824749355437E+01   -4.0317842917896648E+01
B   -1.0116183956725065E+01    2.1324149565652782E+01   -4.0243504030295497E+01
B   -1.2289759163086705E+01    2.2540046308587886E+01   -4.0563194698822450E+01
B   -1.0135281567387223E+01    2.3865139194055697E+01   -4.0517424829454995E+01
B   -1.2300091703007707E+01    2.5074761608077477E+01   -4.0787591189850296E+01
B   -1.0091185783515542E+01    2.6333285493112481E+01   -4.0716274682529182E+01
B   -1.2269725918220200E+01    2.7597679744641734E+01   -4.0715345961895821E+01
B   -1.0096901575056984E+01    2.8852842721304686E+01   -4.0675710291436303E+01
B   -1.2331489320126375E+01    3.0091631912678437E+01   -4.0647505830347647E+01
B   -1.0153112866541866E+01    3.1392110938219144E+01   -4.0535306274104727E+01
B   -7.9606248974177989E+00    2.0037183757390377E+01   -4.0514653369998875E+01
B   -5.8519785611433104E+00    2.1369696472045216E+01   -4.0543518651218783E+01
B   -7.9790662699013639E+00    2.2573109891712459E+01   -4.0474328918462760E+01
B   -5.8131355080876359E+00    2.3808486595247992E+01   -4.0283112856487108E+01
B   -7.9481583236883742E+00    2.5053147562732438E+01   -4.0501375614196874E+01
B   -5.8035833276276652E+00    2.6344371322606339E+01   -4.0482060413128615E+01
B   -7.8893883887767116E+00    2.7632581729465038E+01   -4.0655108977776827E+01
B   -5.7833153994411592E+00    2.8866785351890748E+01   -4.0497455938242346E+01
B   -7.9698717307585820E+00    3.0152390998185933E+01   -4.0634865819258657E+01
B   -5.8173186511561887E+00    3.1372096214275210E+01   -4.0626542044441422E+01
B   -3.6226278849400306E+00    2.0001580604480047E+01   -4.0643667582904428E+01
B   -1.4342613113272780E+00    2.1319388861205589E+01   -4.0913150793747896E+01
B   -3.6540362159159763E+00    2.2467380087067522E+01   -4.0641334147165345E+01
B   -1.5087427416364527E+00    2.3785834442563189E+01   -4.0957894296177159E+01
B   -3.7317440485483702E+00    2.5065332819848138E+01   -4.0577490841032585E+01
B   -1.4962695977276774E+00    2.6342768261839282E+01   -4.0961462072440909E+01
B   -3.6458190674842843E+00    2.7536784931103231E+01   -4.0528015138929860E+01
B   -1.5111099171246158E+00    2.8866005466798569E+01   -4.0759698618316953E+01
B   -3.6701216802704586E+00    3.0098838484569487E+01   -4.0706311115121700E+01
B   -1.4860018009321068E+00    3.1344005253226040E+01   -4.1005942596412993E+01
N   -1.0877104691470869E+01    2.0084863525191391E+01   -4.0236380760369364E+01
N   -8.6650785980869500E+00    2.1342102485733857E+01   -4.0495716328015874E+01
N   -1.0900518781359464E+01    2.2577911345639151E+01   -4.0361375719342888E+01
N   -8.7025963404294107E+00    2.3819491350967564E+01   -4.0453190186873137E+01
N   -1.0824149452636807E+01    2.5092460906590013E+01   -4.0702614432058304E+01
N   -8.6187315648229248E+00    2.6318321296377515E+01   -4.0623805659724255E+01
N   -1.0818691288891944E+01    2.7602559622673127E+01   -4.0735787015585124E+01
N   -8.6772441792333677E+00    2.8863839961400139E+01   -4.0647351378367929E+01
N   -1.0860057916688532E+01    3.0133281332095311E+01   -4.0709115285263209E+01
N   -8.7315854973323859E+00    3.1433783815540604E+01   -4.0559008038902455E+01
N   -6.5409810121973919E+00    2.0049190645206835E+01   -4.0567508434621679E+01
N   -4.4139141318214978E+00    2.1280091677777246E+01   -4.0687497433668533E+01
N   -6.5504127129180807E+00    2.2546865085725386E+01   -4.0274006238706711E+01
N   -4.3807873732694729E+00    2.3768102233639571E+01   -4.0532410909223984E+01
N   -6.5245852831026054E+00    2.5062858426246926E+01   -4.0380378934593139E+01
N   -4.3974791736426502E+00    2.6312503782590642E+01   -4.0530324700506135E+01
N   -6.5385824452725361E+00    2.7599598341878977E+01   -4.0470808286766811E+01
N   -4.3700104813016862E+00    2.8816171941323166E+01   -4.0450992854455293E+01
N   -6.5332027570946174E+00    3.0105144863676220E+01   -4.0564481788306239E+01
N   -4.3966423424333385E+00    3.1341532223962798E+01   -4.0729015121627121E+01
N   -2.1414402747509298E+00    2.0069862702420362E+01   -4.0777487300504781E+01
N    7.6622827495370152E-03    2.1338965302479004E+01   -4.0928285623225889E+01
N   -2.2129092705923061E+00    2.2563509352962090E+01   -4.0726576612020942E+01
N   -4.4118030376961229E-02    2.3821658528167653E+01   -4.1052760779917470E+01
N   -2.2613835753202447E+00    2.5089262052949078E+01   -4.0863484188658035E+01
N   -4.0608429631748176E-02    2.6361158042574260E+01   -4.1041443095216287E+01
N   -2.1884851892547252E+00    2.7565191605917452E+01   -4.0683301768480320E+01
N   -7.5682130499273886E-02    2.8816520192420668E+01   -4.0921295957998474E+01
N   -2.2010832239266747E+00    3.0122024129093457E+01   -4.0755226270740451E+01
N   -8.1841188363041516E-03    3.1343068016658954E+01   -4.1044424076657123E+01
B    6.9764140231383975E-01    7.4884990709673751E+00   -4.1235346000218691E+01
B    2.8721814763115798E+00    8.7483533032011316E+00   -4.1090918981846464E+01
B    6.6886008823739918E-01    1.0014843484558138E+01   -4.0972845642186407E+01
B    2.8675927030151884E+00    1.1334798231494757E+01   -4.0943822049873880E+01
B    6.8690690578635349E-01    1.2490345617251956E+01   -4.0755490516835472E+01
B    2.8454336931117350E+00    1.3822100112044936E+01   -4.0918070969306441E+01
B    6.7904067361391540E-01    1.5038180830214051E+01   -4.0746301803912971E+01
B    2.9146821305841280E+00    1.6302295504845176E+01   -4.0985022231321466E+01
B    7.3239468602082447E-01    1.7588008192264795E+01   -4.0706141402687471E+01
B    2.8876960837811620E+00    1.8843938246415018E+01   -4.0974607708116316E+01
B    5.0838098322100800E+00    7.4973390960919524E+00   -4.0991679877569744E+01
B    7.2321760448662120E+00    8.7203812520163186E+00   -4.0997227877976663E+01
B    5.0277044033431872E+00    1.0042082900576766E+01   -4.0975761998737383E+01
B    7.1744927290627203E+00    1.1300574702300302E+01   -4.0824669166843101E+01
B    5.0740456604157416E+00    1.2578677705948140E+01   -4.0940134614906810E+01
B    7.2282797404729378E+00    1.3886765361684912E+01   -4.0811092242285980E+01
B    5.0533402820506259E+00    1.5075846907220351E+01   -4.0941861244684134E+01
B    7.2041119952221138E+00    1.6320381213916715E+01   -4.0790585627269536E+01
B    4.9950523052736564E+00    1.7552293115705858E+01   -4.0904162854306790E+01
B    7.2517869047635930E+00    1.8821062514103552E+01   -4.0879541923917714E+01
B    9.3995337681951483E+00    7.5012215458889191E+00   -4.0987097025766239E+01
B    1.1565706331501842E+01    8.7708166746281311E+00   -4.0839505614663537E+01
B    9.3239911232695558E+00    1.0059774138394237E+01   -4.0974583300681537E+01
B    1.1558913815627564E+01    1.1279037875047431E+01   -4.0764594285000307E+01
B    9.3447881176488004E+00    1.2576213328854775E+01   -4.0713525045192128E+01
B    1.1523491828306682E+01    1.3762428746752274E+01   -4.0781978097067828E+01
B    9.4146889834407510E+00    1.5062935698682843E+01   -4.0734365385800388E+01
B    1.1628257506780374E+01    1.6322486712980801E+01   -4.0645424597835579E+01
B    9.4406946750153384E+00    1.7552598247399438E+01   -4.0705151802514983E+01
B    1.1555325121061408E+01    1.8837427851077575E+01   -4.0485034032721607E+01
N    2.1372594322969563E+00    7.5323213384089271E+00   -4.1365375842386158E+01
N    4.3626672286633408E+00    8.7231959853639029E+00   -4.1006868754632102E+01
N    2.1206909926902195E+00    1.0049022582712904E+01   -4.0986251418477217E+01
N    4.3530871530862409E+00    1.1321008130913503E+01   -4.1106871096442582E+01
N    2.1433861472149265E+00    1.2582522639060331E+01   -4.0851198035463405E+01
N    4.3010127284023225E+00    1.3820554108598218E+01   -4.0825749799742624E+01
N    2.1050097864389441E+00    1.5120750427483367E+01   -4.0893700436751899E+01
N    4.3031215643406133E+00    1.6318683629754386E+01   -4.0987442167891025E+01
N    2.1947487159332457E+00    1.7558623101420046E+01   -4.0861984289543827E+01
N    4.3494047249921417E+00    1.8845822402407297E+01   -4.1106040791760542E+01
N    6.5239210196042041E+00    7.4771926449952772E+00   -4.0863361128843572E+01
N    8.6612604120090069E+00    8.7636608451158793E+00   -4.1123929924045022E+01
N    6.4739784679986894E+00    9.9858171263743039E+00   -4.0817089101950749E+01
N    8.5747954771858428E+00    1.1298955964368064E+01   -4.0794324870773728E+01
N    6.5041501352975271E+00    1.2613332153303976E+01   -4.0920414289923428E+01
N    8.6615293529518027E+00    1.3845091188666203E+01   -4.0705344927494885E+01
N    6.4667475288967458E+00    1.5124176480315278E+01   -4.0843338717147716E+01
N    8.6298895925214740E+00    1.6366188643781911E+01   -4.0758688461405171E+01
N    6.4769114215927805E+00    1.7557004346413752E+01   -4.0803567228318244E+01
N    8.7323141180151520E+00    1.8791752553404628E+01   -4.0900858272362555E+01
N    1.0841831342540960E+01    7.5100107583882822E+00   -4.0884736438075080E+01
N    1.3004221120126319E+01    8.7944245862369144E+00   -4.0686505477851910E+01
N    1.0810412956861985E+01    1.0011408816331050E+01   -4.0878107351786269E+01
N    1.3006522281638057E+01    1.1283368613739132E+01   -4.0641190838123343E+01
N    1.0807946586397314E+01    1.2532249161049567E+01   -4.0727600436945387E+01
N    1.2956777921198787E+01    1.3740887346537344E+01   -4.0689441926864383E+01
N    1.0891925960256682E+01    1.5063830936421622E+01   -4.0662578372288145E+01
N    1.3072384408130132E+01    1.6275844352962885E+01   -4.0565284347302637E+01
N    1.0870154454462536E+01    1.7560273782874173E+01   -4.0547311918137680E+01
N    1.2976874968128824E+01    1.8817760485754086E+01   -4.0337685789091843E+01
B    7.1890633771548118E-01    2.0118325685425962E+01   -4.0925766158930216E+01
B    2.8875961433559456E+00    2.1333498408973160E+01   -4.0927507182187867E+01
B    7.1845057377227795E-01    2.2608138568931096E+01   -4.1009530419377938E+01
B    2.8696992324071111E+00    2.3853142913228478E+01   -4.0936096143928161E+01
B    7.0403195271750452E-01    2.5127525052321989E+01   -4.0947646887742110E+01
B    2.8868575201012945E+00    2.6386704044464910E+01   -4.0920307720720139E+01
B    6.8471477909249956E-01    2.7591323303744659E+01   -4.1011944531349378E+01
B    2.8424354797285285E+00    2.8828624072773312E+01   -4.0844561672278125E+01
B    6.9664526232825508E-01    3.0052611677780448E+01   -4.1062740504844214E+01
B    2.8949379684130956E+00    3.1345844523234135E+01   -4.1044496554264981E+01
B    5.0472125905717995E+00    2.0073550407995732E+01   -4.1033251373583497E+01
B    7.2723197281126737E+00    2.1231992325734954E+01   -4.1113427045060355E+01
B    5.0966803823071638E+00    2.2501012229129024E+01   -4.1093613310800357E+01
B    7.1866001009455545E+00    2.3872800505267048E+01   -4.1107773754337622E+01
B    5.0441876440951949E+00    2.5092201555957473E+01   -4.0965556872711801E+01
B    7.2513040897109562E+00    2.6320055451796069E+01   -4.0892476198020653E+01
B    5.0744184943495201E+00    2.7579981908406996E+01   -4.0894106112440596E+01
B    7.2444017278542594E+00    2.8814393815395238E+01   -4.0864360734622160E+01
B    5.0423482596073184E+00    3.0080776862076355E+01   -4.0768644219846870E+01
B    7.2386084371007460E+00    3.1302153314424022E+01   -4.0943322688973751E+01
B    9.4763074424335176E+00    2.0027548285023336E+01   -4.0873806039207793E+01
B    1.1564952692116229E+01    2.1313308466615037E+01   -4.0682891623693699E+01
B    9.4152318941484250E+00    2.2556400577564432E+01   -4.0987927150629901E+01
B    1.1601225246748188E+01    2.3784122407427326E+01   -4.0904133886712010E+01
B    9.4386178117665960E+00    2.5034349211863837E+01   -4.0919742048496843E+01
B    1.1629647016199913E+01    2.6316404176582122E+01   -4.0860400486566803E+01
B    9.3904546466377692E+00    2.7527526654375755E+01   -4.0786366878982022E+01
B    1.1606456474213362E+01    2.8809741236378915E+01   -4.0626469126378815E+01
B    9.3724044595798528E+00    3.0092574573753048E+01   -4.0878666393536918E+01
B    1.1552236016660071E+01    3.1318621932981703E+01   -4.0813940063634604E+01
N    2.1528806937405083E+00    2.0072829377757294E+01   -4.0940617297810100E+01
N    4.3052231276845960E+00    2.1300114542886799E+01   -4.1116321767317253E+01
N    2.2082140553878493E+00    2.2604708005786794E+01   -4.0935526394719965E+01
N    4.3062901404104714E+00    2.3824757213987791E+01   -4.0993877123669158E+01
N    2.1627275836180821E+00    2.5110745443232066E+01   -4.0991695670417968E+01
N    4.3374919184405094E+00    2.6344023840800784E+01   -4.0792277263250732E+01
N    2.1092156859193163E+00    2.7612478011656130E+01   -4.0956494877378262E+01
N    4.3253186846012923E+00    2.8828378559286286E+01   -4.0765690059611842E+01
N    2.1536929503145776E+00    3.0090264038272856E+01   -4.1028128462900860E+01
N    4.3668791744213991E+00    3.1380959055329644E+01   -4.0921028783052812E+01
N    6.4964591083620782E+00    1.9991801622367419E+01   -4.1043736997284668E+01
N    8.7185670539607329E+00    2.1233720310147003E+01   -4.1037181253450420E+01
N    6.5290692784225124E+00    2.2528101411902778E+01   -4.1117386103605341E+01
N    8.6552742625072199E+00    2.3812684342324456E+01   -4.1046178766023424E+01
N    6.4818746245299925E+00    2.5078851420527826E+01   -4.1110452798685522E+01
N    8.6815105540187769E+00    2.6323211968202315E+01   -4.0768250251691555E+01
N    6.5269000798371213E+00    2.7559280115856765E+01   -4.0911889518078439E+01
N    8.7187495025491604E+00    2.8812740163766879E+01   -4.0928210580853936E+01
N    6.5044107232714339E+00    3.0059716217893349E+01   -4.0938664346863526E+01
N    8.6917530001664396E+00    3.1359886426566984E+01   -4.1012213201628576E+01
N    1.0885333968129869E+01    2.0060590234923758E+01   -4.0651377220053206E+01
N    1.3023432661439490E+01    2.1288041739609255E+01   -4.0517354114713918E+01
N    1.0841140774236511E+01    2.2573834469764972E+01   -4.0818836056640258E+01
N    1.3033067017584170E+01    2.3809933445602766E+01   -4.0780638445658148E+01
N    1.0902323909428652E+01    2.5048202794678701E+01   -4.1023884462761941E+01
N    1.3120986271648702E+01    2.6365111114185744E+01   -4.0752289477154179E+01
N    1.0904977788305393E+01    2.7564173073627153E+01   -4.0809176251071442E+01
N    1.3056925975290220E+01    2.8838752737511129E+01   -4.0633823790261438E+01
N    1.0866928549118260E+01    3.0077518568166461E+01   -4.0674899951276309E+01
N    1.2992850917027827E+01    3.1387780257631132E+01   -4.0750240559683554E+01
O   -4.7236194489896008E+01    2.9427671725244490E+01   -3.1828400687776096E+01
H   -4.6711262912689840E+01    2.8999707991483540E+01   -3.1173635471050233E+01
H   -4.6594915745375786E+01    2.9548239415918374E+01   -3.2585996073515666E+01
O   -4.5924969007626522E+01   -1.1412418727442968E+00   -2.9473113388556573E+01
H   -4.5855478417396007E+01   -2.0153553300566336E+00   -2.9125531659482728E+01
H   -4.5658692440504737E+01   -1.1112380139013351E+00   -3.0404782256870863E+01
O   -1.5962943270682244E+01    3.8127684269573557E+01   -2.3626244771366945E+01
H   -1.6852784956586525E+01    3.8508843848068707E+01   -2.3830358965202908E+01
H   -1.5367836977996157E+01    3.8983129967948948E+01   -2.3668984154154053E+01
O   -5.6870206800030822E+01    6.2270660706804783E+01   -3.1476109589550834E+01
H   -5.6571905929182201E+01    6.2826986905277863E+01   -3.2311392737261727E+01
H   -5.6147913725466971E+01    6.1598871314247177E+01   -3.1555992105707073E+01
O    2.7514825526641182E+00   -6.3908774868137561E+00   -2.2205272238996088E+01
H    2.8790074281899312E+00   -5.4450256890251678E+00   -2.2455887271977829E+01
H    3.6012619029087900E+00   -6.7567867616311599E+00   -2.2398737747984029E+01
O   -4.5272232797186405E+01   -3.5950980627330608E+01   -3.3596161389207225E+01
H   -4.5818250283621353E+01   -3.5148468452011556E+01   -3.3521701553895433E+01
H   -4.5658221242843311E+01   -3.6558117031383595E+01   -3.2958549095251591E+01
O   -2.9160679992940661E+01   -3.2622110625457950E+01   -3.5422085319210822E+01
H   -2.8908173228932547E+01   -3.1812937874629316E+01   -3.4888575036549369E+01
H   -2.9818901836496078E+01   -3.2382323173390581E+01   -3.6128715690439698E+01
O   -4.9250683325377381E+01    4.0029765078500269E+01   -3.7393430031242140E+01
H   -4.9286684852162765E+01    4.0652373754134693E+01   -3.6619732057727404E+01
H   -4.8415303404825558E+01    4.0305533690483927E+01   -3.7764122050780557E+01
O    2.0231328681904269E+01   -2.9983806699448067E+01   -3.2116876345572898E+01
H    2.0633461230710800E+01   -3.0668506640629516E+01   -3.1616972858947943E+01
H    2.0394806108337740E+01   -2.9189889146251090E+01   -3.1532617350618430E+01
O   -9.5125281694659961E+01   -3.1059774671577298E+01   -3.0281363372209491E+01
H   -9.5414498849675681E+01   -3.1678250299399942E+01   -3.0999996513061781E+01
H   -9.4210559143750032E+01   -3.0779763486559141E+01   -3.0516053216916823E+01
O   -3.7608995732139824E+01   -1.9285370394824174E+01   -3.4772882774443701E+01
H   -3.7441996914983804E+01   -1.9151227902948751E+01   -3.5747595272269741E+01
H   -3.8573727763770179E+01   -1.9299128269412211E+01   -3.4589790076393001E+01
O   -8.3827759357748704E+01    3.9938427299934176E+01   -2.8197478703584999E+01
H   -8.4342191812922024E+01    3.9102510021933334E+01   -2.8316072883958867E+01
H   -8.3462503196148703E+01    4.0068648521175852E+01   -2.7286217325454022E+01
O   -7.1386139415373307E+01    2.0408450907116819E+01   -2.4285006897103372E+01
H   -7.1439837620952446E+01    2.0084361137232612E+01   -2.3371735538936907E+01
H   -7.2333380831032869E+01    2.0432502549301606E+01   -2.4644629888734897E+01
O   -2.3603756483391276E+01   -3.5446496282156993E+01   -3.2264955085632685E+01
H   -2.4366360616190807E+01   -3.4914172485833802E+01   -3.1947873553412457E+01
H   -2.3818387486673846E+01   -3.6393194318984712E+01   -3.2143351012935199E+01
O   -4.4714180501817438E+01    5.0232278958749959E+00   -3.6894212318848027E+01
H   -4.5178571198274810E+01    5.7134714559197910E+00   -3.7351027885772751E+01
H   -4.5043982814242604E+01    4.9264916069804672E+00   -3.5970809507188861E+01
O   -1.0781591265279992E+01   -5.0285519859403642E+00   -3.0453798312584667E+01
H   -1.1280531849846446E+01   -4.1722965161918690E+00   -3.0287352145427604E+01
H   -9.8340181739124706E+00   -4.7595141961957150E+00   -3.0245891109388900E+01
O   -1.6474405707344541E+01   -5.7619666462075493E+01   -2.4185968815166554E+01
H   -1.6185517594604100E+01   -5.8189924680628195E+01   -2.4926725845286938E+01
H   -1.5973269795585937E+01   -5.6785739793955152E+01   -2.4386149519072422E+01
O   -2.6704331224895125E+01    1.3622962344737996E+01   -3.3640166673446259E+01
H   -2.6764105994586583E+01    1.4296576658347055E+01   -3.4385846089485327E+01
H   -2.7664523296850209E+01    1.3443478593638973E+01   -3.3442622783074462E+01
O   -4.7177837521533910E+01    3.1947825680160392E+01   -2.4641866503833331E+01