 # Version information for this restart file 
 # current date 2020-08-12 21:39:33.256
 # current working dir /scratch/snx3000/gtocci/gtocci/MEMBRANES/AIMD_US_IONS_BN/aimd_us_pot/us_13
 # Program compiled at                              Fri Nov 22 15:19:42 CET 2019
 # Program compiled on                                                  daint102
 # Program compiled for                                   CRAY_XC50-gfortran_gpu
 # Source code revision number                                       git:a698b45
 &GLOBAL
   PRINT_LEVEL  LOW
   PROJECT_NAME BNS
   RUN_TYPE  MD
   WALLTIME 86400
 &END GLOBAL
 &MOTION
   &MD
     ENSEMBLE  NVT
     STEPS  2000
     TIMESTEP     9.9999999999999989E-01
     STEP_START_VAL  37095
     TIME_START_VAL     3.7094999999996697E+04
     ECONS_START_VAL    -8.4997167598366468E+03
     TEMPERATURE     3.0000000000000000E+02
     TEMP_KIND  T
     &BAROSTAT
       PRESSURE     1.0000000000000000E+00
       TIMECON     9.9999999999999986E+01
       VIRIAL  Z
     &END BAROSTAT
     &THERMOSTAT
       TYPE  NOSE
       REGION  GLOBAL
       &NOSE
         LENGTH  4
         TIMECON     9.9999999999999986E+01
         MTS  2
         &COORD
               2.5427044735170301E-01    2.0149104285023647E+01    8.2938003247505474E+00   -1.1355343385086204E+01
         &END COORD
         &VELOCITY
               5.0029239197733615E-06   -4.0890341087389682E-04   -6.3869729573994013E-05    3.4558482837607164E-04
         &END VELOCITY
         &MASS
               7.0145132684705392E+07    1.6237299232570693E+04    1.6237299232570693E+04    1.6237299232570693E+04
         &END MASS
         &FORCE
              -4.7396152913867273E-10    4.9616336417109702E-08    1.0869198557420181E-07   -5.4430671494249949E-08
         &END FORCE
       &END NOSE
     &END THERMOSTAT
     &AVERAGES  T
       &RESTART_AVERAGES
         ITIMES_START  1
         AVECPU     3.9032436059520798E+01
         AVEHUGONIOT     0.0000000000000000E+00
         AVETEMP_BARO     0.0000000000000000E+00
         AVEPOT    -8.5025193298826962E+03
         AVEKIN     2.0539677365366553E+00
         AVETEMP     3.0027358278187882E+02
         AVEKIN_QM     0.0000000000000000E+00
         AVETEMP_QM     0.0000000000000000E+00
         AVEVOL     2.2086622704880577E+05
         AVECELL_A     4.9287836997924984E+01
         AVECELL_B     4.7426456757032106E+01
         AVECELL_C     9.4486306644279694E+01
         AVEALPHA     9.0000000000000000E+01
         AVEBETA     9.0000000000000000E+01
         AVEGAMMA     9.0000000000000000E+01
         AVE_ECONS     1.5339694982697777E+01
         AVE_PRESS     0.0000000000000000E+00
         AVE_PXX     0.0000000000000000E+00
       &END RESTART_AVERAGES
     &END AVERAGES
     &PRINT
       &TEMP_KIND  SILENT
       &END TEMP_KIND
     &END PRINT
   &END MD
   &FREE_ENERGY
     &METADYN
       MIN_DISP    -1.0000000000000000E+00
       OLD_HILL_NUMBER  0
       OLD_HILL_STEP  0
       DO_HILLS  F
       STEP_START_VAL  37095
       NHILLS_START_VAL  0
       &METAVAR
         SCALE     1.0000000000000000E+00
         COLVAR  1
       &END METAVAR
       &PRINT
         &COLVAR  SILENT
           COMMON_ITERATION_LEVELS  3
           &EACH
             MD  1
           &END EACH
         &END COLVAR
       &END PRINT
     &END METADYN
   &END FREE_ENERGY
   &CONSTRAINT
     &COLLECTIVE
       COLVAR  1
       INTERMOLECULAR  T
       &RESTRAINT
         K     4.4625385281452931E-04
       &END RESTRAINT
     &END COLLECTIVE
     &COLVAR_RESTART
           1.2505553607708899E+01
     &END COLVAR_RESTART
   &END CONSTRAINT
   &PRINT
     &TRAJECTORY  SILENT
       &EACH
         MD  1
       &END EACH
     &END TRAJECTORY
     &VELOCITIES  SILENT
       &EACH
         MD  1
       &END EACH
     &END VELOCITIES
     &FORCES  SILENT
       UNIT eV*angstrom^-1
       &EACH
         MD  1
       &END EACH
     &END FORCES
     &RESTART  SILENT
       &EACH
         MD  1
       &END EACH
     &END RESTART
     &RESTART_HISTORY  SILENT
       &EACH
         MD  100
       &END EACH
     &END RESTART_HISTORY
   &END PRINT
 &END MOTION
 &FORCE_EVAL
   METHOD  QS
   &DFT
     BASIS_SET_FILE_NAME /users/gtocci/softwares/data_cp2k//BASIS_MOLOPT
     POTENTIAL_FILE_NAME /users/gtocci/softwares/data_cp2k//GTH_POTENTIALS
     WFN_RESTART_FILE_NAME ./BNS-RESTART.wfn
     CHARGE  1
     &SCF
       MAX_SCF  10
       EPS_SCF     9.9999999999999995E-07
       SCF_GUESS  RESTART
       &OT  T
         MINIMIZER  DIIS
         PRECONDITIONER  FULL_KINETIC
       &END OT
       &OUTER_SCF  T
         EPS_SCF     9.9999999999999995E-07
         MAX_SCF  30
       &END OUTER_SCF
       &PRINT
         &RESTART  SILENT
           ADD_LAST  NUMERIC
           &EACH
             QS_SCF  50
           &END EACH
         &END RESTART
       &END PRINT
     &END SCF
     &QS
       MAP_CONSISTENT  T
       EXTRAPOLATION  ASPC
       EXTRAPOLATION_ORDER  4
     &END QS
     &MGRID
       NGRIDS  5
       CUTOFF     4.6000000000000000E+02
     &END MGRID
     &XC
       DENSITY_CUTOFF     1.0000000000000000E-10
       GRADIENT_CUTOFF     1.0000000000000000E-10
       TAU_CUTOFF     1.0000000000000000E-10
       &XC_GRID
         XC_DERIV  SPLINE2_SMOOTH
       &END XC_GRID
       &XC_FUNCTIONAL  NO_SHORTCUT
         &LIBXC  T
           FUNCTIONAL XC_GGA_X_OPTB88_VDW
         &END LIBXC
         &VWN  T
         &END VWN
       &END XC_FUNCTIONAL
       &VDW_POTENTIAL
         POTENTIAL_TYPE  NON_LOCAL
         &NON_LOCAL
           TYPE  DRSLL
           VERBOSE_OUTPUT  T
           KERNEL_FILE_NAME /users/gtocci/softwares/data_cp2k//vdW_kernel_table.dat
           CUTOFF     3.6000000000000000E+02
         &END NON_LOCAL
       &END VDW_POTENTIAL
     &END XC
     &REAL_TIME_PROPAGATION
       INITIAL_WFN  SCF_WFN
     &END REAL_TIME_PROPAGATION
     &PRINT
       &MULLIKEN  SILENT
         FILENAME =BNS.mulliken
       &END MULLIKEN
     &END PRINT
   &END DFT
   &SUBSYS
     &CELL
       A     2.6082000000000019E+01    0.0000000000000000E+00    0.0000000000000000E+00
       B     0.0000000000000000E+00    2.5097000000000001E+01    0.0000000000000000E+00
       C     0.0000000000000000E+00    0.0000000000000000E+00    5.0000000000000028E+01
       MULTIPLE_UNIT_CELL  1 1 1
     &END CELL
     &COORD
B   -1.3570106282103508E+01    8.3578708055236088E+00   -2.9595009845971127E+01
B   -1.1354642162455441E+01    9.6086652994725963E+00   -2.9476690314648454E+01
B   -1.3574940803982482E+01    1.0818765096239124E+01   -2.9362320836347280E+01
B   -1.1407272539690526E+01    1.2124923341536919E+01   -2.9353569643345171E+01
B   -1.3598328145761645E+01    1.3374044413803844E+01   -2.9391941554023525E+01
B   -1.1424979431222658E+01    1.4628718756841923E+01   -2.9437751255874712E+01
B   -1.3571453281285665E+01    1.5882791195887815E+01   -2.9330055194729173E+01
B   -1.1376615881225337E+01    1.7149287701206099E+01   -2.9505765160861333E+01
B   -1.3505653084615322E+01    1.8373008108440178E+01   -2.9540801311738026E+01
B   -1.1346438349940673E+01    1.9675859089131315E+01   -2.9765297363651495E+01
B   -9.1823538208951465E+00    8.3456549922642900E+00   -2.9582824466107738E+01
B   -7.0294282989338370E+00    9.6309639234776299E+00   -2.9588207605989652E+01
B   -9.2099905067588956E+00    1.0878329311076209E+01   -2.9395298166422048E+01
B   -7.0080206550446427E+00    1.2124103363613088E+01   -2.9567163856397805E+01
B   -9.1995500287092415E+00    1.3371096649329516E+01   -2.9373564794261391E+01
B   -7.0208648390647310E+00    1.4638353437265591E+01   -2.9499630481623466E+01
B   -9.1998356215310508E+00    1.5881243868514423E+01   -2.9443643722930741E+01
B   -7.0362376261982806E+00    1.7135870038107988E+01   -2.9475643022161229E+01
B   -9.2015285536659235E+00    1.8434672998836660E+01   -2.9602784344001535E+01
B   -6.9824827586161717E+00    1.9681237276827318E+01   -2.9567047979211754E+01
B   -4.8740457520067766E+00    8.4411592020609341E+00   -2.9562558728697240E+01
B   -2.7031085057216231E+00    9.6378795773742638E+00   -2.9507067814032453E+01
B   -4.8311009048451696E+00    1.0938731558578999E+01   -2.9514245911493429E+01
B   -2.6955009196889574E+00    1.2186829370772855E+01   -2.9315728422032684E+01
B   -4.7896221229897691E+00    1.3436233917776072E+01   -2.9475360152345704E+01
B   -2.6571426979733088E+00    1.4722659585685498E+01   -2.9225305741396873E+01
B   -4.8446937625898476E+00    1.5934077405083448E+01   -2.9438924321093651E+01
B   -2.6781441151590268E+00    1.7186173069922603E+01   -2.9216948473871046E+01
B   -4.8802769428486297E+00    1.8431014106741955E+01   -2.9346398485626363E+01
B   -2.6691817502011488E+00    1.9660121558316067E+01   -2.9269660906683395E+01
N   -1.2108204338575637E+01    8.3664420716488230E+00   -2.9528687763929010E+01
N   -9.9370408142860533E+00    9.5976123462447998E+00   -2.9487608977869762E+01
N   -1.2101137934796581E+01    1.0797548118751788E+01   -2.9425341011830156E+01
N   -9.9492067682230001E+00    1.2171342764626051E+01   -2.9299778779897743E+01
N   -1.2160805063685260E+01    1.3365615656936908E+01   -2.9444529602199818E+01
N   -9.9588543132864196E+00    1.4597278909884800E+01   -2.9516530423117736E+01
N   -1.2143071223630391E+01    1.5892961043262019E+01   -2.9434654295799554E+01
N   -9.9340974634230577E+00    1.7125098483975560E+01   -2.9538236231932334E+01
N   -1.2073234226674344E+01    1.8416614855699319E+01   -2.9568941835014332E+01
N   -9.9169854571900764E+00    1.9743677104150869E+01   -2.9690847758365564E+01
N   -7.7487744327076031E+00    8.3765539571241643E+00   -2.9581311302728171E+01
N   -5.6079413875218691E+00    9.6879848435548954E+00   -2.9567399885546045E+01
N   -7.7547039366421622E+00    1.0888917133621709E+01   -2.9498370486318130E+01
N   -5.5681388857719858E+00    1.2159410995389223E+01   -2.9566082735389280E+01
N   -7.7548450041666035E+00    1.3353264526072971E+01   -2.9443929290938090E+01
N   -5.5438192996560378E+00    1.4659279732344169E+01   -2.9530003125126303E+01
N   -7.7792726846596665E+00    1.5886045685672046E+01   -2.9475121789112986E+01
N   -5.5695442123615022E+00    1.7186626935894523E+01   -2.9403825310710616E+01
N   -7.7574866524653361E+00    1.8373469865520477E+01   -2.9605631549469557E+01
N   -5.5791113493802182E+00    1.9691940678373300E+01   -2.9563648283020239E+01
N   -3.4480987323442651E+00    8.4356149842388941E+00   -2.9578476431250436E+01
N   -1.2422245081578851E+00    9.5581081316432961E+00   -2.9436998852734305E+01
N   -3.3922618716885884E+00    1.0926312185589895E+01   -2.9352897019634558E+01
N   -1.2206991678937376E+00    1.2148143499748498E+01   -2.9322907507096261E+01
N   -3.3814147851904557E+00    1.3443221352142446E+01   -2.9356030521596562E+01
N   -1.1668831614939368E+00    1.4706005056281507E+01   -2.9125954933648526E+01
N   -3.3819884551623458E+00    1.5922830078808198E+01   -2.9326815462653915E+01
N   -1.2304499641290234E+00    1.7161344269245660E+01   -2.9301837608039094E+01
N   -3.4348236636264780E+00    1.8430193143412072E+01   -2.9168039527711525E+01
N   -1.2269530101301587E+00    1.9690279810729475E+01   -2.9282432713238734E+01
B   -1.3526514885311739E+01    2.0880243050192924E+01   -2.9885484801667939E+01
B   -1.1312477489526628E+01    2.2225410900645013E+01   -3.0023916047070312E+01
B   -1.3527858463316040E+01    2.3418031274812794E+01   -2.9880842194780485E+01
B   -1.1342130699142356E+01    2.4721326435651338E+01   -2.9786640530333937E+01
B   -1.3537636714988095E+01    2.5884820736207946E+01   -2.9651160426892236E+01
B   -1.1330137332790866E+01    2.7212439316380951E+01   -2.9703167709379851E+01
B   -1.3550213505364638E+01    2.8351371234651037E+01   -2.9725590813971259E+01
B   -1.1417805302839263E+01    2.9689980169026651E+01   -2.9909792696534552E+01
B   -1.3640149872051714E+01    3.0917848409815335E+01   -2.9776459843099794E+01
B   -1.1408039241994400E+01    3.2225300695801252E+01   -2.9714793087150291E+01
B   -9.1427850904535859E+00    2.0957505899373057E+01   -2.9708855196500171E+01
B   -6.9353439892036253E+00    2.2158549580787852E+01   -2.9809255990896961E+01
B   -9.0535807021706312E+00    2.3410404618337509E+01   -2.9943023087233858E+01
B   -7.0134121289607885E+00    2.4721158150573615E+01   -2.9776388405945305E+01
B   -9.1952952709449836E+00    2.5928799116966513E+01   -2.9702874644407299E+01
B   -7.0208489204664124E+00    2.7228650599976266E+01   -2.9640066272417407E+01
B   -9.1975264769017127E+00    2.8454432468182450E+01   -2.9677805055461022E+01
B   -7.0675895640517759E+00    2.9715290537064853E+01   -2.9695038838097922E+01
B   -9.2145327004575268E+00    3.0976239309950333E+01   -2.9853622868098746E+01
B   -7.0570984498896880E+00    3.2239601901664287E+01   -2.9699136800349351E+01
B   -4.8199290647572353E+00    2.0934984872268146E+01   -2.9546860883354164E+01
B   -2.6966565654123484E+00    2.2204758856784583E+01   -2.9354149074384061E+01
B   -4.7887124552108746E+00    2.3456842182290767E+01   -2.9593771000806736E+01
B   -2.6368826049944660E+00    2.4726453455632175E+01   -2.9297285631226014E+01
B   -4.8663290713441461E+00    2.5959881977862228E+01   -2.9533065841835700E+01
B   -2.7058510010748940E+00    2.7263542495899305E+01   -2.9326582485258687E+01
B   -4.9147570743408213E+00    2.8546779670738712E+01   -2.9439771173551982E+01
B   -2.7062026301267785E+00    2.9816319928965360E+01   -2.9657093414669848E+01
B   -4.8734473151179616E+00    3.1014718699586538E+01   -2.9728962344803225E+01
B   -2.7479263351021110E+00    3.2292415934182067E+01   -2.9731132485971241E+01
N   -1.2086075392796673E+01    2.0913505307728347E+01   -2.9954234304488278E+01
N   -9.8427692296141771E+00    2.2206551980504280E+01   -2.9908268281960552E+01
N   -1.2040532038535160E+01    2.3486693187234359E+01   -3.0025918529935385E+01
N   -9.8885930547017029E+00    2.4673457349359524E+01   -2.9924682814705939E+01
N   -1.2093833033582406E+01    2.5922713456235265E+01   -2.9702469054959888E+01
N   -9.9296473661775195E+00    2.7162782383649198E+01   -2.9671508826323883E+01
N   -1.2118853244297027E+01    2.8401305651389610E+01   -2.9713245865462994E+01
N   -9.9354818900811477E+00    2.9678934206600093E+01   -2.9918517902508928E+01
N   -1.2139211730767649E+01    3.0978281706443884E+01   -2.9755150220063307E+01
N   -9.9529774602311196E+00    3.2228424165895312E+01   -2.9788568154031520E+01
N   -7.6632568580470695E+00    2.0963025386349734E+01   -2.9590770366917283E+01
N   -5.4441098305693583E+00    2.2166086104744380E+01   -2.9677886045121497E+01
N   -7.6216071715386944E+00    2.3428410369025912E+01   -2.9872043335909286E+01
N   -5.5663845484178180E+00    2.4739556081727823E+01   -2.9625729945243435E+01
N   -7.7603281879391384E+00    2.5970917192759376E+01   -2.9694729352556266E+01
N   -5.6179639013427423E+00    2.7206150263736266E+01   -2.9598796001607287E+01
N   -7.7726667125536100E+00    2.8461683493380225E+01   -2.9440207515784572E+01
N   -5.6495730656829588E+00    2.9780254825841634E+01   -2.9580812626062599E+01
N   -7.7980546085261393E+00    3.0976645172459783E+01   -2.9810649868490703E+01
N   -5.5982015770602453E+00    3.2254008823762632E+01   -2.9729427499996024E+01
N   -3.3520804253503504E+00    2.0914721506509697E+01   -2.9471718655619931E+01
N   -1.2136093566670243E+00    2.2260597579126578E+01   -2.9245185419100903E+01
N   -3.3666760635745012E+00    2.3475573155174011E+01   -2.9420014711507683E+01
N   -1.2042536144216192E+00    2.4753080258393702E+01   -2.9157103297937567E+01
N   -3.4173450578083884E+00    2.5989746270431993E+01   -2.9292069530316407E+01
N   -1.2476121254567394E+00    2.7278274692270926E+01   -2.9334972698945055E+01
N   -3.4546823044852681E+00    2.8590920718041627E+01   -2.9400390932820272E+01
N   -1.2497101514464475E+00    2.9780340630922517E+01   -2.9633494955955953E+01
N   -3.4422860920826124E+00    3.0977073819008357E+01   -2.9714771694890374E+01
N   -1.2820994680810136E+00    3.2198952648008913E+01   -2.9747215289137561E+01
B   -5.3005989413356758E-01    8.3347125518969545E+00   -2.9566057408157352E+01
B    1.7016344313258627E+00    9.6338062966338018E+00   -2.9502996362312611E+01
B   -5.5093037000670653E-01    1.0860412088772176E+01   -2.9341701748576735E+01
B    1.6708720221420170E+00    1.2107519707627169E+01   -2.9222199505212018E+01
B   -5.2629209001350663E-01    1.3418449860778267E+01   -2.9206773510017850E+01
B    1.6504118451803729E+00    1.4657203232121201E+01   -2.9065651989409627E+01
B   -4.9254070030229347E-01    1.5921854382545753E+01   -2.9178455093591211E+01
B    1.6868527675837750E+00    1.7210631928962936E+01   -2.9055174913430655E+01
B   -5.4707668140018728E-01    1.8436086561995563E+01   -2.9117820305682223E+01
B    1.6660882310119038E+00    1.9719030790069837E+01   -2.9188317104163225E+01
B    3.8537371460605079E+00    8.3728078047680636E+00   -2.9727529016010426E+01
B    6.0479988247013328E+00    9.6096203541605529E+00   -2.9626448978955949E+01
B    3.8359887701449900E+00    1.0868028583687158E+01   -2.9692854161317829E+01
B    5.9992029907084108E+00    1.2161844704605722E+01   -2.9641880699874367E+01
B    3.8139532248158527E+00    1.3383659922551418E+01   -2.9367289939461035E+01
B    5.9252459119304355E+00    1.4684053782164746E+01   -2.9423264156740299E+01
B    3.7979002197485472E+00    1.5984520924007624E+01   -2.9092208793446133E+01
B    5.9937505740061567E+00    1.7165129708673295E+01   -2.9347139433828595E+01
B    3.8032702677289549E+00    1.8462247637573565E+01   -2.9305828710617483E+01
B    6.0201223441468334E+00    1.9667742219123454E+01   -2.9509299235264947E+01
B    8.2186536869392608E+00    8.3811076706665837E+00   -2.9496403215109424E+01
B    1.0342735092424597E+01    9.6290821939895199E+00   -2.9475604131637873E+01
B    8.2354047118952511E+00    1.0925226725078517E+01   -2.9453103309548968E+01
B    1.0346665059803048E+01    1.2137314939153852E+01   -2.9291676337587568E+01
B    8.1675673325262217E+00    1.3383488470435934E+01   -2.9416923125913588E+01
B    1.0317609057531506E+01    1.4646795342235901E+01   -2.9330467264867405E+01
B    8.1153273716763188E+00    1.5836908964625545E+01   -2.9261632031007863E+01
B    1.0348247096953365E+01    1.7140889188644231E+01   -2.9409938133529284E+01
B    8.2653781223685137E+00    1.8387969186053130E+01   -2.9399080251053061E+01
B    1.0399398883746688E+01    1.9674376547708011E+01   -2.9513694504355513E+01
N    9.4289929591538779E-01    8.3590142403240879E+00   -2.9531456528386187E+01
N    3.1346331611304832E+00    9.6454904518981959E+00   -2.9719285096611824E+01
N    9.5122474018294279E-01    1.0810001140782276E+01   -2.9294489433897112E+01
N    3.1130182391732699E+00    1.2117117027268741E+01   -2.9508999005969244E+01
N    9.5177457110958341E-01    1.3368969850907655E+01   -2.9075233682716927E+01
N    3.0906615509247723E+00    1.4680568914687676E+01   -2.9136959641208520E+01
N    9.4739571613838436E-01    1.5897888694770703E+01   -2.9073316072213739E+01
N    3.1392818680395336E+00    1.7223263994338343E+01   -2.9009068896557562E+01
N    9.2492865182955997E-01    1.8415052529653586E+01   -2.9114166170363237E+01
N    3.0836593153258214E+00    1.9718326732022103E+01   -2.9374683517616500E+01
N    5.3188819396666505E+00    8.3985249093476675E+00   -2.9677721771359270E+01
N    7.4842402794451051E+00    9.6221059201836727E+00   -2.9382511656635625E+01
N    5.3164437917049456E+00    1.0896587209137426E+01   -2.9794708659159500E+01
N    7.4524124139328105E+00    1.2145990605752074E+01   -2.9473326139327686E+01
N    5.2457101789845106E+00    1.3405862546590333E+01   -2.9532841151202955E+01
N    7.4014997249012335E+00    1.4619566561297674E+01   -2.9375488747506786E+01
N    5.2180212386256253E+00    1.5922471257020412E+01   -2.9293954883317820E+01
N    7.4607446609722015E+00    1.7138472353802889E+01   -2.9380293927503615E+01
N    5.2178914156327236E+00    1.8402549788023883E+01   -2.9531977122620074E+01
N    7.4805680168150150E+00    1.9627407972336115E+01   -2.9562040583730301E+01
N    9.5849534077460952E+00    8.3852878363748662E+00   -2.9524317163161037E+01
N    1.1754141608204634E+01    9.5737014969178684E+00   -2.9534356541836715E+01
N    9.6281429775034226E+00    1.0893768749582527E+01   -2.9406981530431707E+01
N    1.1779036390395447E+01    1.2054514320567518E+01   -2.9294051055037198E+01
N    9.6244522780806072E+00    1.3392191713666689E+01   -2.9341265135905704E+01
N    1.1742982892900015E+01    1.4660089353391307E+01   -2.9402521602497899E+01
N    9.6177992463776398E+00    1.5843395305522076E+01   -2.9285250629213255E+01
N    1.1821826906208420E+01    1.7142174014925562E+01   -2.9353277256933051E+01
N    9.6742651511575701E+00    1.8422315013166909E+01   -2.9435397987059726E+01
N    1.1862859711106276E+01    1.9648426882398105E+01   -2.9612284806461076E+01
B   -5.3464800951068014E-01    2.0950393625148497E+01   -2.9265858961758667E+01
B    1.6461622205069049E+00    2.2215092145097621E+01   -2.9304147375987100E+01
B   -4.6430056318665625E-01    2.3490752390049224E+01   -2.9167334072771286E+01
B    1.6922106095819152E+00    2.4776396304999142E+01   -2.9274277658597104E+01
B   -5.1773668960727726E-01    2.6006309738670470E+01   -2.9329120759629582E+01
B    1.6797021798507130E+00    2.7188333263103850E+01   -2.9330286378281016E+01
B   -5.4160107876361929E-01    2.8498148054871464E+01   -2.9395926922046137E+01
B    1.6729828428365463E+00    2.9715659026671521E+01   -2.9634677289675327E+01
B   -5.5696167469648050E-01    3.0958443376077661E+01   -2.9725707879943037E+01
B    1.6355312599166816E+00    3.2177819761889673E+01   -2.9776909234599909E+01
B    3.8135982605978147E+00    2.0961189856952835E+01   -2.9449352470379704E+01
B    6.0083386284238873E+00    2.2233936448558300E+01   -2.9499829062644519E+01
B    3.8360985220530917E+00    2.3483050464302750E+01   -2.9499272802312007E+01
B    6.0207824615085173E+00    2.4706353463935393E+01   -2.9561130868678820E+01
B    3.8988419389200022E+00    2.5979335227934754E+01   -2.9471231583428402E+01
B    6.0741582248448438E+00    2.7227269446556612E+01   -2.9413420278901583E+01
B    3.8136271690133441E+00    2.8532083672393856E+01   -2.9426554069730884E+01
B    6.0258941341157470E+00    2.9713878672467207E+01   -2.9445246960302001E+01
B    3.8462586477243486E+00    3.1031360957709492E+01   -2.9631682053137506E+01
B    6.0191490119368902E+00    3.2205087113186821E+01   -2.9569270858235605E+01
B    8.1945756797392626E+00    2.0902695733604801E+01   -2.9540687304557856E+01
B    1.0352093688535881E+01    2.2160354621710116E+01   -2.9752212609267861E+01
B    8.1927451729158456E+00    2.3388711939616847E+01   -2.9650924426991427E+01
B    1.0355152017711386E+01    2.4633332195327075E+01   -2.9796150813834988E+01
B    8.1654296339520567E+00    2.5930848207784113E+01   -2.9508797100301198E+01
B    1.0362774360786515E+01    2.7146453005670466E+01   -2.9696545263939402E+01
B    8.2023009644423368E+00    2.8438378175203901E+01   -2.9415334006534142E+01
B    1.0377834806027275E+01    2.9660535453818095E+01   -2.9735560989266371E+01
B    8.2048093247035467E+00    3.0872510703565631E+01   -2.9514518797572332E+01
B    1.0329199197782062E+01    3.2222041712495496E+01   -2.9651129056134280E+01
N    9.5658627778908456E-01    2.0954223009497408E+01   -2.9221284730388000E+01
N    3.1055217411565947E+00    2.2260441474199418E+01   -2.9501617053812733E+01
N    9.5839379051750884E-01    2.3498350732112769E+01   -2.9244568658785671E+01
N    3.1130811878993061E+00    2.4765557706635054E+01   -2.9388158543945270E+01
N    9.2593060876237987E-01    2.5988763480714582E+01   -2.9288276257927283E+01
N    3.1226080542195245E+00    2.7248323293316734E+01   -2.9410089070923235E+01
N    9.4104856837489614E-01    2.8461193116327706E+01   -2.9448798114632691E+01
N    3.1213523388881126E+00    2.9774482564993416E+01   -2.9557065339284588E+01
N    8.9163675362989525E-01    3.0940992969538925E+01   -2.9773886089193820E+01
N    3.1113018951596794E+00    3.2206655190520848E+01   -2.9831359555377016E+01
N    5.3352889218708368E+00    2.0975245353466445E+01   -2.9484080197513300E+01
N    7.4864887576556960E+00    2.2172779827803154E+01   -2.9565648078604323E+01
N    5.2757818709919206E+00    2.3477692459640366E+01   -2.9611922212608508E+01
N    7.4831083172577024E+00    2.4675067637801391E+01   -2.9517120226185121E+01
N    5.3324566386466481E+00    2.5969346263504058E+01   -2.9466778059069668E+01
N    7.5014397338241281E+00    2.7192570636174931E+01   -2.9447724254067559E+01
N    5.2886028196998511E+00    2.8417341548923037E+01   -2.9484717772127468E+01
N    7.4836531272440014E+00    2.9655667475144096E+01   -2.9373088718677899E+01
N    5.2543201606537835E+00    3.0958757015231974E+01   -2.9562642970164532E+01
N    7.5103923982324075E+00    3.2134279253765790E+01   -2.9464036068655297E+01
N    9.6585843730277379E+00    2.0934730848365497E+01   -2.9567217547689435E+01
N    1.1803866225188669E+01    2.2195482451989264E+01   -2.9849485697474755E+01
N    9.6187699367571575E+00    2.3408726002797540E+01   -2.9882652694068643E+01
N    1.1752591586967799E+01    2.4629252200912738E+01   -2.9662503808560260E+01
N    9.6115518290571771E+00    2.5879103303882687E+01   -2.9710465888267198E+01
N    1.1802674510270124E+01    2.7125219463907605E+01   -2.9659779005470629E+01
N    9.6610319013904729E+00    2.8437358591040706E+01   -2.9582688839610160E+01
N    1.1819002019788980E+01    2.9644222100781910E+01   -2.9801120787591650E+01
N    9.6332900741050906E+00    3.0975835110759061E+01   -2.9563229726004138E+01
N    1.1751423815307565E+01    3.2174088566476790E+01   -2.9804358254657185E+01
O    5.3985522467769229E+01    6.0864730800192127E+01   -2.0948485033397130E+01
H    5.4091417525184063E+01    5.9875117652262603E+01   -2.1087092435416629E+01
H    5.4590845338089899E+01    6.1068134438237145E+01   -2.0172179017124705E+01
O    2.4124509502545166E+01   -6.4535905737298208E+01   -2.2612803197698355E+01
H    2.3866164576030339E+01   -6.5486285454321774E+01   -2.2879973360672217E+01
H    2.4397681704582329E+01   -6.3909709389055450E+01   -2.3378291881743859E+01
O    6.8191164412578459E+01    7.5181050885746956E+01   -1.5682022260571337E+01
H    6.8408727899016313E+01    7.5977389050512215E+01   -1.6235447657442194E+01
H    6.7383864464532579E+01    7.5625573206151245E+01   -1.5309628215556414E+01
O    7.3295220399058053E+01    6.5072199095157568E-01   -2.0533443726683998E+01
H    7.4264850706009923E+01    6.9817790548586856E-01   -2.0541659500241295E+01
H    7.3046849487576253E+01    1.2646459318781991E+00   -1.9833063112922513E+01
O    2.6594485124216945E+01   -2.3761775929213979E+01   -2.6198576647079353E+01
H    2.5697466282812428E+01   -2.4242159539955033E+01   -2.6120510469553199E+01
H    2.6666952419764101E+01   -2.3687597544342857E+01   -2.7178129854752967E+01
O    5.1226503709033686E+01   -1.0670321405297267E+01   -2.2307118870487891E+01
H    5.1401456767678539E+01   -1.0291421870133901E+01   -2.1424730125358348E+01
H    5.0307291530982646E+01   -1.1033936850130734E+01   -2.2205889938896924E+01
O   -1.3371368192508966E+00   -7.0565596095049429E+01   -1.7251905338533064E+01
H   -2.1175242491647581E+00   -7.0916477805075587E+01   -1.6764617799440153E+01
H   -1.7340551785731986E+00   -6.9840953963370453E+01   -1.7875439464151071E+01
O    4.1917254873023630E+01    1.8981049660879748E+01   -1.5582280149008009E+01
H    4.1964243977168216E+01    1.8678458634449257E+01   -1.6501526834324650E+01
H    4.2426136979752052E+01    1.8366723573196246E+01   -1.5050756969634886E+01
O    1.5873305357051688E+01    6.1000434716071537E+00   -1.6304776921069852E+01
H    1.6706889238733510E+01    5.5962529038603384E+00   -1.6550744116241251E+01
H    1.6099322024383078E+01    6.4924596127010163E+00   -1.5401765487433025E+01
O    4.3586347393657164E+01   -5.8135905537678475E+01   -2.2035609502378577E+01
H    4.3118322883642080E+01   -5.7323722399518637E+01   -2.2270841191578793E+01
H    4.4218439349356487E+01   -5.7826984805620839E+01   -2.1277748844736454E+01
O   -3.3323296770923164E+01    1.4204499629347119E+01   -2.1196976245525924E+01
H   -3.2967264933376079E+01    1.3259273950553014E+01   -2.1067175694714340E+01
H   -3.3647481818843296E+01    1.4111836516675934E+01   -2.2172475199418326E+01
O    6.8412074541744738E+00    2.9581573021294303E+00   -1.4410050815900002E+01
H    6.7767298126014133E+00    3.0687964938281205E+00   -1.3403221694104708E+01
H    7.8149108831755116E+00    2.8009694716209848E+00   -1.4518824160018506E+01
O    9.1591845860817415E+01    2.4655090694900696E+01   -1.9025523942087315E+01
H    9.1871982897862239E+01    2.5185346897571559E+01   -1.9786118849474398E+01
H    9.0959626189218369E+01    2.3976731648094248E+01   -1.9394216990507402E+01
O    5.2476513780089206E+01    2.7803528395945410E+01   -2.3655468928648403E+01
H    5.2516470493964675E+01    2.7427909759969463E+01   -2.4521831342911387E+01
H    5.3117085246517071E+01    2.8481947969845127E+01   -2.3513021090227245E+01
O    8.3661046243614621E+01    2.8847631102705623E+01   -1.7354531808599436E+01
H    8.4261872891454360E+01    2.9364822262145424E+01   -1.6723979122994042E+01
H    8.2863124719285949E+01    2.8598356913787583E+01   -1.6823674749115487E+01
O    2.8178874458741952E+01    1.4014929777094691E+01   -1.4716489771657500E+01
H    2.8392934149473238E+01    1.4744876302361243E+01   -1.4068733582207363E+01
H    2.7252142140292591E+01    1.4321487654338815E+01   -1.5121845061076110E+01
O    4.2089022004376432E+01   -4.2658327335392947E+01   -2.6441045696388940E+01
H    4.1665434635723066E+01   -4.3513636896725288E+01   -2.6638529208822604E+01
H    4.1876683899302442E+01   -4.2655344887471934E+01   -2.5484678598405925E+01
O    8.7719699116492777E+01   -6.7983851556260575E+01   -2.2992655084397278E+01
H    8.7369545866716010E+01   -6.7663168409049959E+01   -2.3922665571455763E+01
H    8.7066069849024274E+01   -6.7803107499396958E+01   -2.2205157407781527E+01
O    7.1967372386564250E+01   -2.6504084044845481E+01   -1.3819952244653249E+01
H    7.1309430988492807E+01   -2.6782997318817653E+01   -1.4487065710394432E+01