 # Version information for this restart file 
 # current date 2019-01-28 05:12:36.199
 # current working dir /scratch/snx3000/gtocci/gtocci/MEMBRANES/AIMD_US_IONS_GRA/potassium/aimd_us_pot/us_24
 # Program compiled at                             Thu Oct 11 21:49:41 CEST 2018
 # Program compiled on                                                  daint104
 # Program compiled for                                   CRAY_XC50-gfortran_gpu
 # Source code revision number                                     git:be74c20a5
 &GLOBAL
   PRINT_LEVEL  LOW
   PROJECT_NAME GRAS
   RUN_TYPE  MD
   WALLTIME 10200
 &END GLOBAL
 &MOTION
   &MD
     ENSEMBLE  NVT
     STEPS  100000
     TIMESTEP     9.9999999999999989E-01
     STEP_START_VAL  40838
     TIME_START_VAL     4.0837999999990556E+04
     ECONS_START_VAL    -8.3206640647711974E+03
     TEMPERATURE     3.0000000000000000E+02
     TEMP_KIND  T
     &BAROSTAT
       PRESSURE     1.0000000000000000E+00
       TIMECON     9.9999999999999986E+01
       VIRIAL  Z
     &END BAROSTAT
     &THERMOSTAT
       TYPE  NOSE
       REGION  GLOBAL
       &NOSE
         LENGTH  4
         TIMECON     9.9999999999999986E+01
         MTS  2
         &COORD
               1.4027879579807234E-01    1.1066231048287770E+01    3.3812514592178500E-01   -5.4971972400937776E+00
         &END COORD
         &VELOCITY
               2.4821999479171792E-06   -4.8713519006793549E-04   -3.1719029023793765E-04    1.6173184925189437E-04
         &END VELOCITY
         &MASS
               7.0145132684705392E+07    1.6237299232570693E+04    1.6237299232570693E+04    1.6237299232570693E+04
         &END MASS
         &FORCE
              -8.1419149238559207E-10   -3.1893126218284070E-08    1.7879067955241856E-07    4.2099666371122052E-08
         &END FORCE
       &END NOSE
     &END THERMOSTAT
     &AVERAGES  T
       &RESTART_AVERAGES
         ITIMES_START  1
         AVECPU     4.6703552569729631E+01
         AVEHUGONIOT     0.0000000000000000E+00
         AVETEMP_BARO     0.0000000000000000E+00
         AVEPOT    -8.3232679173080414E+03
         AVEKIN     2.0524199449060601E+00
         AVETEMP     3.0004730807949505E+02
         AVEKIN_QM     0.0000000000000000E+00
         AVETEMP_QM     0.0000000000000000E+00
         AVEVOL     2.1331414786628107E+05
         AVECELL_A     4.8437460238125468E+01
         AVECELL_B     4.6608961231944662E+01
         AVECELL_C     9.4486306644279509E+01
         AVEALPHA     9.0000000000000057E+01
         AVEBETA     9.0000000000000057E+01
         AVEGAMMA     9.0000000000000057E+01
         AVE_ECONS    -1.7517149953143245E+00
         AVE_PRESS     0.0000000000000000E+00
         AVE_PXX     0.0000000000000000E+00
       &END RESTART_AVERAGES
     &END AVERAGES
     &PRINT
       &TEMP_KIND  SILENT
       &END TEMP_KIND
     &END PRINT
   &END MD
   &FREE_ENERGY
     &METADYN
       MIN_DISP    -1.0000000000000000E+00
       OLD_HILL_NUMBER  0
       OLD_HILL_STEP  0
       DO_HILLS  F
       STEP_START_VAL  40838
       NHILLS_START_VAL  0
       &METAVAR
         SCALE     1.0000000000000000E+00
         COLVAR  1
       &END METAVAR
       &PRINT
         &COLVAR  SILENT
           COMMON_ITERATION_LEVELS  3
           &EACH
             MD  1
           &END EACH
         &END COLVAR
       &END PRINT
     &END METADYN
   &END FREE_ENERGY
   &CONSTRAINT
     &COLLECTIVE
       COLVAR  1
       INTERMOLECULAR  T
       &RESTRAINT
         K     4.4625385281452931E-04
       &END RESTRAINT
     &END COLLECTIVE
     &COLVAR_RESTART
           2.2676713594627724E+01
     &END COLVAR_RESTART
   &END CONSTRAINT
   &PRINT
     &TRAJECTORY  SILENT
       &EACH
         MD  1
       &END EACH
     &END TRAJECTORY
     &VELOCITIES  SILENT
       &EACH
         MD  1
       &END EACH
     &END VELOCITIES
     &FORCES  SILENT
       UNIT eV*angstrom^-1
       &EACH
         MD  1
       &END EACH
     &END FORCES
     &RESTART  SILENT
       &EACH
         MD  1
       &END EACH
     &END RESTART
     &RESTART_HISTORY  SILENT
       &EACH
         MD  100
       &END EACH
     &END RESTART_HISTORY
   &END PRINT
 &END MOTION
 &FORCE_EVAL
   METHOD  QS
   &DFT
     BASIS_SET_FILE_NAME /users/gtocci/scratch_daint_3000/data_cp2k//BASIS_MOLOPT
     POTENTIAL_FILE_NAME /users/gtocci/scratch_daint_3000/data_cp2k//GTH_POTENTIALS
     WFN_RESTART_FILE_NAME ./GRAS-RESTART.wfn
     CHARGE  1
     &SCF
       MAX_SCF  10
       EPS_SCF     9.9999999999999995E-07
       SCF_GUESS  RESTART
       &OT  T
         MINIMIZER  DIIS
         PRECONDITIONER  FULL_KINETIC
       &END OT
       &OUTER_SCF  T
         EPS_SCF     9.9999999999999995E-07
         MAX_SCF  30
       &END OUTER_SCF
       &PRINT
         &RESTART  SILENT
           ADD_LAST  NUMERIC
           &EACH
             QS_SCF  50
           &END EACH
         &END RESTART
       &END PRINT
     &END SCF
     &QS
       MAP_CONSISTENT  T
       EXTRAPOLATION  ASPC
       EXTRAPOLATION_ORDER  4
     &END QS
     &MGRID
       NGRIDS  5
       CUTOFF     4.6000000000000000E+02
     &END MGRID
     &XC
       DENSITY_CUTOFF     1.0000000000000000E-10
       GRADIENT_CUTOFF     1.0000000000000000E-10
       TAU_CUTOFF     1.0000000000000000E-10
       &XC_GRID
         XC_DERIV  SPLINE2_SMOOTH
       &END XC_GRID
       &XC_FUNCTIONAL  NO_SHORTCUT
         &LIBXC  T
           FUNCTIONAL XC_GGA_X_OPTB88_VDW
         &END LIBXC
         &VWN  T
         &END VWN
       &END XC_FUNCTIONAL
       &VDW_POTENTIAL
         POTENTIAL_TYPE  NON_LOCAL
         &NON_LOCAL
           TYPE  DRSLL
           VERBOSE_OUTPUT  T
           KERNEL_FILE_NAME /users/gtocci/scratch_daint_3000/data_cp2k//vdW_kernel_table.dat
         &END NON_LOCAL
       &END VDW_POTENTIAL
     &END XC
     &REAL_TIME_PROPAGATION
       INITIAL_WFN  SCF_WFN
     &END REAL_TIME_PROPAGATION
     &PRINT
       &MULLIKEN  SILENT
         FILENAME =GRAS.mulliken
       &END MULLIKEN
     &END PRINT
   &END DFT
   &SUBSYS
     &CELL
       A     2.5632000000000001E+01    0.0000000000000000E+00    0.0000000000000000E+00
       B     0.0000000000000000E+00    2.4664400000000022E+01    0.0000000000000000E+00
       C     0.0000000000000000E+00    0.0000000000000000E+00    5.0000000000000028E+01
       MULTIPLE_UNIT_CELL  1 1 1
     &END CELL
     &COORD
C   -2.0562381598329185E+00   -1.0026474954225007E+01    1.6613287534133236E+00
C   -6.3758545863529670E-01   -9.9892209756106070E+00    1.5197537195990509E+00
C    1.0516203681090838E-01   -8.7725236756583165E+00    1.5113674255848453E+00
C    1.5484679877441385E+00   -8.7840640462697159E+00    1.5363665080251649E+00
C   -2.0905703371185003E+00   -7.5732044182257630E+00    1.8079718794837432E+00
C   -6.4064493951304569E-01   -7.5450904514684272E+00    1.7045012026195532E+00
C    6.3158480175794549E-02   -6.3283778576308523E+00    1.7213859097484041E+00
C    1.4907492806750093E+00   -6.3120595771220449E+00    1.7575413559348854E+00
C   -2.0535302140482155E+00   -5.0789342874592345E+00    1.8520608814720323E+00
C   -6.4950961699747312E-01   -5.0631898266101087E+00    1.8139916843326336E+00
C    7.0018099454143876E-02   -3.8648215918140898E+00    1.9337321366207365E+00
C    1.4974399136200729E+00   -3.8456740400313674E+00    1.8837581051898158E+00
C   -2.0981901094588489E+00   -2.6322106983543847E+00    1.9224139183630427E+00
C   -6.3876180538347382E-01   -2.6274260532551477E+00    1.8939651792712917E+00
C    8.5112514237785847E-02   -1.3963150695091542E+00    1.8782824870054011E+00
C    1.5055410000825891E+00   -1.3860542851964841E+00    1.8972308768894821E+00
C   -2.0994258059442203E+00   -2.1885168941624816E-01    1.9235339557217823E+00
C   -6.4727295126382045E-01   -2.0052836234004159E-01    1.8696365139589608E+00
C    6.1671283445063022E-02   -1.1278351147823592E+01    1.4463374023471531E+00
C    1.5148209606074949E+00   -1.1295454550168230E+01    1.4378570148918821E+00
C    2.2205042566302811E+00   -1.0033116605566226E+01    1.4676176891373445E+00
C    3.6566049940065048E+00   -1.0031033547753278E+01    1.5351936709562548E+00
C    4.3450100166622372E+00   -8.7788824112320221E+00    1.6787312214846977E+00
C    5.7670538452025006E+00   -8.7611226033530070E+00    1.7716755584981891E+00
C    2.2157009730154495E+00   -7.5356130967252657E+00    1.6415656867065440E+00
C    3.5970355007158830E+00   -7.5399764801566391E+00    1.7663196432442543E+00
C    4.3465192316628256E+00   -6.2835050126885790E+00    1.8122447538940223E+00
C    5.8183934875887591E+00   -6.3140562710709780E+00    1.8847736069534078E+00
C    2.1978393788059685E+00   -5.0860192710823231E+00    1.8227637067740461E+00
C    3.6336477533006413E+00   -5.0634812306143475E+00    1.8812032244155728E+00
C    4.3678694886949474E+00   -3.8271388342704338E+00    1.9235188131314451E+00
C    5.7843110227284100E+00   -3.8301776018330105E+00    1.7849572433139080E+00
C    2.2279819126646525E+00   -2.6027660960024677E+00    1.9148307880658908E+00
C    3.6646642144138619E+00   -2.5847021938873618E+00    1.9602126146957179E+00
C    4.3299463917263532E+00   -1.3649352981362062E+00    1.7864932830523914E+00
C    5.7508044731021402E+00   -1.3930583152314819E+00    1.8136283517897673E+00
C    2.1896013956118003E+00   -1.5142356564171600E-01    1.8180945042874403E+00
C    3.6133821545352482E+00   -1.2958965037401488E-01    1.7118019927047083E+00
C    4.3907281968819865E+00   -1.1240959755155181E+01    1.5419368692000190E+00
C    5.8245634393092391E+00   -1.1228000566026822E+01    1.5566857045530909E+00
C    6.5084443230895328E+00   -9.9802396043788715E+00    1.7007128281764381E+00
C    7.9377791690845152E+00   -1.0008144598619738E+01    1.8511415687901605E+00
C    8.6263990555929784E+00   -8.7749224889866291E+00    1.8011369457524431E+00
C    1.0045135399962989E+01   -8.7970856806207109E+00    1.8899004865210063E+00
C    6.5256004895825486E+00   -7.5493794532563143E+00    1.9132305815920194E+00
C    7.9407953128451885E+00   -7.5564882599892860E+00    1.8676219935571468E+00
C    8.6586831987724668E+00   -6.2986522784490111E+00    1.8911644367547009E+00
C    1.0051717156221137E+01   -6.3095951411840101E+00    1.9955989013466429E+00
C    6.5107001843958177E+00   -5.0430935696023580E+00    1.7352079982686579E+00
C    7.9168142406991153E+00   -5.0532546803304577E+00    1.8040354962791842E+00
C    8.6260089630902979E+00   -3.8360749751286125E+00    1.8703576364060408E+00
C    1.0049259007832150E+01   -3.8504624830665590E+00    2.0064799966714744E+00
C    6.4780290776210272E+00   -2.6297081264978193E+00    1.8413578153863921E+00
C    7.9081860673251372E+00   -2.6325020983735210E+00    1.8214860525622132E+00
C    8.5876452070264602E+00   -1.3808153850217209E+00    1.9461571517379330E+00
C    1.0006915087491132E+01   -1.3453640574584971E+00    2.0421888319355053E+00
C    6.4451918187634929E+00   -1.3641411317536684E-01    1.7943393045235856E+00
C    7.8781270604812548E+00   -1.6181286293784700E-01    1.9316782434236215E+00
C    8.6299464562968193E+00   -1.1268053578767129E+01    1.7754012176981391E+00
C    1.0046559550957163E+01   -1.1296436048172179E+01    1.8278203413762610E+00
C   -2.0530715639860420E+00    2.2572091036014297E+00    1.8376707746677468E+00
C   -6.6414362360437840E-01    2.2583866105662005E+00    1.7311399428102023E+00
C    8.0501856885511869E-02    3.5062921706672401E+00    1.6696712403230309E+00
C    1.4967972930529891E+00    3.5211238255310464E+00    1.6330250030725852E+00
C   -2.0561091141703050E+00    4.7373001413565694E+00    1.8811096338965398E+00
C   -6.3927044232720232E-01    4.7402946185880817E+00    1.6745834781646143E+00
C    6.7644850434914389E-02    5.9693996607731146E+00    1.6851110558346345E+00
C    1.4960989300592924E+00    5.9500094901734837E+00    1.6329921510853902E+00
C   -2.0295695726036831E+00    7.2640885397993387E+00    1.8431479255940066E+00
C   -6.2378033136598732E-01    7.2586031645388633E+00    1.7586515883564870E+00
C    8.9971785386384437E-02    8.4876091536385001E+00    1.7266182336151172E+00
C    1.4949131466521293E+00    8.4717331712762149E+00    1.6711121460386620E+00
C   -2.0789108317766787E+00    9.7381477076121872E+00    1.5864939467252885E+00
C   -6.3286183632057569E-01    9.6942349751100227E+00    1.6277581747149976E+00
C    7.9744417777455612E-02    1.0915024497076741E+01    1.5960937111873330E+00
C    1.5111498698975478E+00    1.0888221270552060E+01    1.5215582133264443E+00
C   -2.0570026343791077E+00    1.2178919883250225E+01    1.5619781000385262E+00
C   -6.3912358079744458E-01    1.2173193238927913E+01    1.5505159997349072E+00
C    9.3039307103617422E-02    1.0424731315950206E+00    1.7934708456894939E+00
C    1.5118497031059368E+00    1.0846869236643208E+00    1.7958557604937846E+00
C    2.2153312526646798E+00    2.3105848759849739E+00    1.6477291990072034E+00
C    3.5990285153408705E+00    2.3161750728566810E+00    1.6322494883625795E+00
C    4.3403397963924020E+00    3.5522685005149608E+00    1.5910742568448812E+00
C    5.7686754953277530E+00    3.5686279509746668E+00    1.6387941403792161E+00
C    2.2261214175385895E+00    4.7587954693766754E+00    1.6483806734428872E+00
C    3.6560878476466612E+00    4.7750600291209579E+00    1.6157285757619246E+00
C    4.3679752130369671E+00    6.0040490454636997E+00    1.4713184261381456E+00
C    5.7892609212280624E+00    6.0183127518350288E+00    1.4622505324334611E+00
C    2.2057081130498322E+00    7.2197696633565149E+00    1.6117345234329419E+00
C    3.6283689096266292E+00    7.2177670493233643E+00    1.4997517709461943E+00
C    4.3155167276503983E+00    8.4608079538083736E+00    1.4443301237371373E+00
C    5.7303612465363676E+00    8.4899088645063028E+00    1.4133004546969368E+00
C    2.2025133129570604E+00    9.6806268589145219E+00    1.5227664985061045E+00
C    3.6297747702840075E+00    9.6485531678122030E+00    1.5140135766151970E+00
C    4.3688450290660308E+00    1.0939289228984219E+01    1.5037487919684727E+00
C    5.7921186350987011E+00    1.0974966794182192E+01    1.5420289058898566E+00
C    2.2166278672826776E+00    1.2144175681354653E+01    1.4980798340843464E+00
C    3.6666459528545343E+00    1.2189668500992962E+01    1.5145961146982485E+00
C    4.3303692746386471E+00    1.0951081829190912E+00    1.6150010611990913E+00
C    5.7332670513672124E+00    1.0749112564739116E+00    1.6564897115908619E+00
C    6.4529244172273881E+00    2.3015794799471547E+00    1.6123613113085646E+00
C    7.8792938204772520E+00    2.2792175371756538E+00    1.6918848869743039E+00
C    8.5960471386405768E+00    3.5385639151273218E+00    1.7010595269248019E+00
C    1.0040301421895581E+01    3.5871144075145605E+00    1.7773351848467920E+00
C    6.4896258673894156E+00    4.7915889959240827E+00    1.5862377746951559E+00
C    7.8869920300090923E+00    4.7720407572750227E+00    1.6445827048015307E+00
C    8.5924480592027273E+00    6.0139807293105987E+00    1.6807765872548237E+00
C    1.0012786671153256E+01    6.0414738689675866E+00    1.6799392106737394E+00
C    6.4354558510902224E+00    7.2438412931068257E+00    1.3765518183485341E+00
C    7.8741713809993445E+00    7.2378235040995982E+00    1.4831660796458612E+00
C    8.6199525821058494E+00    8.4634744816395688E+00    1.5233723471863729E+00
C    1.0056216792030643E+01    8.4835420271530921E+00    1.6168473094805385E+00
C    6.4893808920608977E+00    9.7011231940516236E+00    1.5054247891196961E+00
C    7.8974043945013648E+00    9.6683314993962135E+00    1.5111994131965629E+00
C    8.6088537804229706E+00    1.0891408203328373E+01    1.5825194136483491E+00
C    1.0020215407722242E+01    1.0906241799127312E+01    1.7865015648116755E+00
C    6.5173060044235704E+00    1.2189125895450802E+01    1.6150293049087985E+00
C    7.9168683691239758E+00    1.2163805448743533E+01    1.6588257508920281E+00
C    8.6008550823043883E+00    1.0608154831731222E+00    1.8600610065969863E+00
C    1.0011842957096205E+01    1.1333628663035062E+00    1.8983906845592939E+00
C    1.0778625323167962E+01   -1.0042159081552391E+01    1.8152810394408103E+00
C    1.2210079371260443E+01   -9.9901960764275923E+00    1.8124652217217316E+00
C    1.2902506813687863E+01   -8.7405835283015776E+00    1.7736703439870456E+00
C    1.4329876303971746E+01   -8.7693223626850294E+00    1.8534605180305879E+00
C    1.0717571777906356E+01   -7.5324920798895674E+00    1.8939377039598591E+00
C    1.2166850844041036E+01   -7.4910176595993248E+00    1.8208661021702754E+00
C    1.2881703023649308E+01   -6.2895678427991148E+00    1.9797477826731900E+00
C    1.4320752113450974E+01   -6.3137541436182909E+00    1.9782479223246514E+00
C    1.0749124824600241E+01   -5.0868432443821936E+00    2.0693519963984346E+00
C    1.2188406303983433E+01   -5.0371150106005755E+00    2.1560082112046861E+00
C    1.2856855470084756E+01   -3.8038823930739434E+00    2.3262988378994249E+00
C    1.4291348873553980E+01   -3.8406159802297162E+00    2.1977462498530160E+00
C    1.0719412510538813E+01   -2.5829571927037076E+00    2.0804375222012141E+00
C    1.2139151563308440E+01   -2.5680466813487510E+00    2.1722142884587372E+00
C    1.2834137309568442E+01   -1.3420212434892760E+00    2.1942750317735031E+00
C    1.4282803710130407E+01   -1.3648945041039855E+00    2.1004877546747585E+00
C    1.0710678737671085E+01   -1.1191206089150936E-01    2.1257146140264749E+00
C    1.2131566268822116E+01   -1.1552557276931956E-01    2.2292976693512019E+00
C    1.2913138149116474E+01   -1.1212672511848055E+01    1.8721901666035792E+00
C    1.4325777026807922E+01   -1.1224314261385270E+01    1.7856639987910654E+00
C    1.5008849505252471E+01   -9.9668508818592052E+00    1.7340110474065462E+00
C    1.6435997466240099E+01   -1.0024132010779427E+01    1.6778381403677556E+00
C    1.7120221093858810E+01   -8.7863130518389632E+00    1.7516801503553538E+00
C    1.8566818343498948E+01   -8.7798922041340202E+00    1.8149719134314821E+00
C    1.5057033677093196E+01   -7.5366204182161747E+00    1.9418919324155757E+00
C    1.6448422769204512E+01   -7.5631874131345809E+00    1.9330311218037513E+00
C    1.7149316625428582E+01   -6.3499757886783383E+00    1.9672801331420591E+00
C    1.8580121078729515E+01   -6.2941792628685187E+00    1.9285895406235376E+00
C    1.4988436021855094E+01   -5.0988712240495246E+00    2.1103770528066135E+00
C    1.6418928750387323E+01   -5.0921809193429342E+00    2.0510237355667909E+00
C    1.7114769105840384E+01   -3.8539690081404454E+00    2.0998131030642919E+00
C    1.8555071818118300E+01   -3.8173401298099940E+00    2.1105468488367882E+00
C    1.4963539880792078E+01   -2.5938418087736625E+00    2.0576023405688373E+00
C    1.6401956192216030E+01   -2.6075874043320484E+00    2.0121378615518659E+00
C    1.7095012584108314E+01   -1.3848348002078521E+00    2.0237475197031030E+00
C    1.8513228801826997E+01   -1.3412326253166091E+00    2.0186100268911380E+00
C    1.4980319433086089E+01   -1.5084721444992377E-01    1.9811745125681703E+00
C    1.6383442043582122E+01   -1.3109333664122313E-01    2.0285297987398851E+00
C    1.7142388566522833E+01   -1.1252201438602651E+01    1.6578988834459953E+00
C    1.8578353593601864E+01   -1.1257413952298986E+01    1.8141129273218153E+00
C    1.9258973945911048E+01   -1.0004082440747286E+01    1.7355887401952823E+00
C    2.0689732280494727E+01   -9.9977331000659149E+00    1.7599323087886101E+00
C    2.1426466784658132E+01   -8.7746654017078036E+00    1.7975387428583480E+00
C    2.2849186917387282E+01   -8.7869477629534387E+00    1.7492077445322554E+00
C    1.9253270404599682E+01   -7.5305012784592522E+00    1.8435483956882046E+00
C    2.0701701780188856E+01   -7.5229004762942413E+00    1.9141360711453117E+00
C    2.1386778210089879E+01   -6.3034827156512820E+00    1.9142986276259504E+00
C    2.2861209164605256E+01   -6.3324960383373705E+00    1.8607083419319799E+00
C    1.9284898860363796E+01   -5.0428322044028224E+00    1.9999590610244358E+00
C    2.0706521187400572E+01   -5.0312373489540825E+00    1.9551636814831230E+00
C    2.1390048539362041E+01   -3.8252481489914887E+00    2.0296673130428564E+00
C    2.2808695333898950E+01   -3.8499973338280236E+00    1.9911828056121770E+00
C    1.9262492707240622E+01   -2.5906888817142355E+00    2.0707034501148165E+00
C    2.0670177955702581E+01   -2.5997841722562685E+00    2.0503579494592676E+00
C    2.1382762071842485E+01   -1.3535704944102673E+00    1.9822861568360939E+00
C    2.2828633882487029E+01   -1.4143516504813565E+00    1.9568190874196310E+00
C    1.9264611052742961E+01   -1.2984266747058637E-01    1.9828788311686905E+00
C    2.0676775688885648E+01   -1.3402908100831451E-01    1.9345509099721050E+00
C    2.1421295722522760E+01   -1.1229279536204519E+01    1.6970564273968101E+00
C    2.2857633857757957E+01   -1.1274297993397477E+01    1.6664162955579878E+00
C    1.0720980269349210E+01    2.3565597469807469E+00    1.9190376533038214E+00
C    1.2156174836758552E+01    2.3764087090780057E+00    1.9319259062743688E+00
C    1.2909310794989880E+01    3.6052222009626060E+00    1.8042980362204264E+00
C    1.4335919788390640E+01    3.5468975382410499E+00    1.8049630092963618E+00
C    1.0724628743346337E+01    4.8223358840337172E+00    1.7110163122725459E+00
C    1.2214900232941075E+01    4.8167636898557156E+00    1.8333498129682742E+00
C    1.2913569601060441E+01    6.0426653984973377E+00    1.8515562982558624E+00
C    1.4329954730280978E+01    6.0001142501960727E+00    1.8934895487299688E+00
C    1.0732322866815142E+01    7.2639848798384561E+00    1.7157272684953782E+00
C    1.2183603396172821E+01    7.2825836638140604E+00    1.7861997026804459E+00
C    1.2894839998921212E+01    8.5359444852748645E+00    1.8983635103639600E+00
C    1.4302551009274033E+01    8.5108782640455996E+00    1.9678460526460939E+00
C    1.0785777903980346E+01    9.7150949117877641E+00    1.7577219534441222E+00
C    1.2185247084600670E+01    9.7337026988627748E+00    1.8168277520358791E+00
C    1.2880814240950230E+01    1.0985996815076165E+01    1.9082671582426425E+00
C    1.4276203883430917E+01    1.0993646546219656E+01    1.8880761933621837E+00
C    1.0743202541897451E+01    1.2126356765843795E+01    1.9049848212755871E+00
C    1.2161974473469650E+01    1.2205025768670199E+01    1.9359036250031059E+00
C    1.2833921216911969E+01    1.1147339578215005E+00    2.0275589851719471E+00
C    1.4264214398840359E+01    1.1041105189834119E+00    1.9463565850260374E+00
C    1.4984761233573348E+01    2.2925101679586026E+00    1.8445044284000587E+00
C    1.6421244194972360E+01    2.3139174185190816E+00    1.9456062260079390E+00
C    1.7140341673772088E+01    3.5730878728275690E+00    1.9985437011464888E+00
C    1.8568228895937136E+01    3.6250515157523839E+00    2.0498332794351293E+00
C    1.5038809229692159E+01    4.7771645906662732E+00    1.8697376392360141E+00
C    1.6436557273625070E+01    4.8054891094146335E+00    2.0056315116797818E+00
C    1.7138092212696499E+01    6.0417707092803479E+00    2.1018052403861089E+00
C    1.8582813948126301E+01    6.0438678457584247E+00    2.0784131219015927E+00
C    1.5029762186645867E+01    7.2439878729285496E+00    2.0119305653884672E+00
C    1.6455295275748274E+01    7.2616123028415895E+00    2.0888135392850420E+00
C    1.7158924918143040E+01    8.5002538877277285E+00    2.0460863481105624E+00
C    1.8579977435540066E+01    8.5384734458459501E+00    1.9638775519079497E+00
C    1.4987333843992094E+01    9.7596784273685504E+00    1.9266064534672613E+00
C    1.6409215931193277E+01    9.7430097780441560E+00    1.8974331232612227E+00
C    1.7146286885673987E+01    1.0984017292824218E+01    1.8064874917908571E+00
C    1.8593893090472246E+01    1.0982583150363427E+01    1.8916393301016072E+00
C    1.4973318532336712E+01    1.2195489449908017E+01    1.8679173855079403E+00
C    1.6432574710271872E+01    1.2190693972920444E+01    1.7321555957476262E+00
C    1.7117890838808705E+01    1.0775634302049517E+00    2.0427466225655619E+00
C    1.8544909125942421E+01    1.1309013826802463E+00    2.0378028868547711E+00
C    1.9265266637347086E+01    2.3622662595092034E+00    1.9731849475808805E+00
C    2.0685680416280796E+01    2.3530528642109156E+00    1.9240766241007183E+00
C    2.1424807282156856E+01    3.5603730333431649E+00    1.9290568594189563E+00
C    2.2853959247384385E+01    3.4970733614476215E+00    1.9136292408295987E+00
C    1.9315702518161046E+01    4.8374912602455789E+00    2.0709126828333995E+00
C    2.0759476978156588E+01    4.7946364974275877E+00    2.0246591844877035E+00
C    2.1448177933222386E+01    6.0188104183892390E+00    1.9271825584941915E+00
C    2.2918640868837439E+01    6.0021861613988428E+00    1.8948806522826733E+00
C    1.9288634849062827E+01    7.2619457725828456E+00    1.9755289130916018E+00
C    2.0746742392058639E+01    7.2524833583688606E+00    1.8605995319445332E+00
C    2.1433943087740712E+01    8.4888430519702869E+00    1.7632138356199254E+00
C    2.2869696271820658E+01    8.5056662413851605E+00    1.7127058797727603E+00
C    1.9295941326729199E+01    9.7592731616419925E+00    1.8856067332803079E+00
C    2.0745044361042432E+01    9.7394611493641001E+00    1.7384139845353097E+00
C    2.1424240379381406E+01    1.0965910528954010E+01    1.6297915678052968E+00
C    2.2852138333772015E+01    1.0958707326623401E+01    1.5689463254571172E+00
C    1.9314190403879778E+01    1.2199898250048626E+01    1.8249644076271960E+00
C    2.0724561122986557E+01    1.2207351828494723E+01    1.7203418991847497E+00
C    2.1386517736886312E+01    1.1077966214055750E+00    1.8618708973911064E+00
C    2.2817425372998436E+01    1.0323178162214013E+00    1.8178141506006011E+00
O    1.3982655415735738E+02    2.1532443293309365E+02    1.1625614655829333E+01
H    1.3928040293200303E+02    2.1610111150182126E+02    1.1892004857817074E+01
H    1.4061222944876135E+02    2.1537860321238557E+02    1.2169421003401807E+01
O    1.1886600806080483E+02    2.4687475065083109E+02    1.5209674875816312E+01
H    1.1930094803040529E+02    2.4697376877078997E+02    1.6110057468334354E+01
H    1.1963304985820687E+02    2.4687419869221370E+02    1.4600040037171908E+01
O    5.5875433975302954E+01    3.6912412306571525E+02    1.4777052147057786E+01
H    5.5194337806901537E+01    3.6843985060505798E+02    1.5069100580247706E+01
H    5.6491445326112547E+01    3.6906033762986328E+02    1.5534776986195885E+01
O    1.4419717213144841E+02    3.1150347553541758E+02    5.3525381592492538E+00
H    1.4461088697704608E+02    3.1211604157874712E+02    5.9723646130320711E+00
H    1.4349518358142947E+02    3.1100003151423545E+02    5.8617440219154915E+00
O    9.8814323793682959E+01    3.8396294804757724E+02    5.0608019410772185E+00
H    9.8625569196199024E+01    3.8381446538076142E+02    6.0180008724027445E+00
H    9.7959067845125801E+01    3.8432475218244815E+02    4.7725459011764571E+00
O    5.1745101487048508E+01    2.2602179162592756E+02    7.8896277607714982E+00
H    5.0808921480633387E+01    2.2570831107460882E+02    7.6299403569361814E+00
H    5.1946588096719914E+01    2.2663306904590459E+02    7.1423774508963245E+00
O    1.9867273221622941E+02    3.1982321819107131E+02    1.9873653177343627E+01
H    1.9945484371699933E+02    3.2031575894579191E+02    1.9580729148760341E+01
H    1.9854767257945207E+02    3.1985946154053062E+02    2.0879054173810655E+01
O    6.7362230548322387E+01    2.3457360277610181E+02    1.1281181942944121E+01
H    6.6677128623447501E+01    2.3384133061302691E+02    1.1340392335930657E+01
H    6.7476496283904382E+01    2.3493761340216892E+02    1.2174638983445353E+01
O   -5.7230740761769987E+01    3.5278296327025049E+02    8.1769600871052646E+00
H   -5.7409890781270114E+01    3.5193066822802786E+02    7.7362077779063512E+00
H   -5.7320613351389056E+01    3.5254548273474109E+02    9.0832694365643452E+00
O    1.1925606093404345E+02    3.5195744120796996E+02    1.0205092399364135E+01
H    1.1890675336757734E+02    3.5268643526733916E+02    9.6454412476778053E+00
H    1.1866512133012802E+02    3.5122485170984282E+02    1.0229320555414079E+01
O    8.0605477576887893E+01    3.0350439869881956E+02    1.4899861529292100E+01
H    7.9986048375337759E+01    3.0427513180949194E+02    1.5075010649900204E+01
H    8.0214619399250012E+01    3.0292877307404706E+02    1.4185805937126309E+01
O    2.8063342573501235E+01    3.4356408842469108E+02    1.1137498969519534E+01
H    2.8741159604704528E+01    3.4426217452155532E+02    1.1039136166784935E+01
H    2.8481608962562493E+01    3.4276383637999936E+02    1.1514951116408545E+01
O    1.0062890980708426E+02    2.6697426192883648E+02    2.0130930025776905E+01
H    9.9711552402709970E+01    2.6643233977558310E+02    2.0090581740392182E+01
H    1.0040027375687065E+02    2.6730199093595149E+02    2.1013927655420819E+01
O    1.4515929775928987E+02    1.0154085671086241E+02    1.8907296982301062E+01
H    1.4540768981566049E+02    1.0226868958347372E+02    1.8323234333289843E+01
H    1.4547063337136399E+02    1.0171532087431457E+02    1.9798824559900442E+01
O   -3.7747321862391431E+01    4.9258921335748465E+02    5.4661241326078978E+00
H   -3.8441229094521326E+01    4.9318598726894442E+02    5.1891033545136542E+00
H   -3.7873882751643805E+01    4.9178078260529975E+02    4.9255865850424758E+00
O    6.4393752413723035E+01    3.5937214786456184E+02    1.0998981892575882E+01
H    6.5257522466312111E+01    3.5957272268462532E+02    1.0609339673390176E+01
H    6.3676478651257703E+01    3.5994235086659057E+02    1.0624961405630845E+01
O    8.5605876467543141E+01    3.7834450997877298E+02    2.0609594064866684E+01
H    8.4796499496821411E+01    3.7842034720661235E+02    2.0060022607598949E+01
H    8.5329869764654717E+01    3.7845379760023843E+02    2.1496029539173406E+01
O    1.3422570812729390E+02    2.4538114549805297E+02    2.0090473035901184E+01
H    1.3489227374519044E+02    2.4612379574262184E+02    2.0008788547261751E+01
H    1.3463297679541313E+02    2.4479503062479154E+02    2.0742902230942075E+01
O    6.4048343031444702E+01    3.2520769546508996E+02    1.1113549493288675E+01
H    6.3774171651701174E+01    3.2497549498487763E+02    1.2052335579797107E+01