 # Version information for this restart file 
 # current date 2020-04-18 20:42:48.938
 # current working dir /scratch/snx3000/gtocci/gtocci/MEMBRANES/AIMD_US_IONS_GRA/us_aimd_new/us_15
 # Program compiled at                              Fri Nov 22 15:19:42 CET 2019
 # Program compiled on                                                  daint102
 # Program compiled for                                   CRAY_XC50-gfortran_gpu
 # Source code revision number                                       git:a698b45
 &GLOBAL
   PRINT_LEVEL  LOW
   PROJECT_NAME GRAS
   RUN_TYPE  MD
   WALLTIME 86400
 &END GLOBAL
 &MOTION
   &MD
     ENSEMBLE  NVT
     STEPS  2000
     TIMESTEP     9.9999999999999989E-01
     STEP_START_VAL  78851
     TIME_START_VAL     7.8850999999932086E+04
     ECONS_START_VAL    -8.3019687504186841E+03
     TEMPERATURE     3.0000000000000000E+02
     TEMP_KIND  T
     &BAROSTAT
       PRESSURE     1.0000000000000000E+00
       TIMECON     9.9999999999999986E+01
       VIRIAL  Z
     &END BAROSTAT
     &THERMOSTAT
       TYPE  NOSE
       REGION  GLOBAL
       &NOSE
         LENGTH  4
         TIMECON     9.9999999999999986E+01
         MTS  2
         &COORD
              -2.6155667868021801E-02    1.0279859819774392E+01   -7.8297912626226707E-01    2.5372013334401657E+00
         &END COORD
         &VELOCITY
               3.3965061942471924E-06    2.4572382561818682E-04   -9.8441531325092052E-05   -3.6232398033559569E-04
         &END VELOCITY
         &MASS
               7.0145132684705392E+07    1.6237299232570693E+04    1.6237299232570693E+04    1.6237299232570693E+04
         &END MASS
         &FORCE
               2.0313630972743419E-09   -8.6733951550478254E-09    1.8701846263320169E-09   -4.8819278760475992E-08
         &END FORCE
       &END NOSE
     &END THERMOSTAT
     &AVERAGES  T
       &RESTART_AVERAGES
         ITIMES_START  1
         AVECPU     3.0892677787831641E+01
         AVEHUGONIOT     0.0000000000000000E+00
         AVETEMP_BARO     0.0000000000000000E+00
         AVEPOT    -8.3067391723363271E+03
         AVEKIN     2.0517202930066487E+00
         AVETEMP     2.9993346750563273E+02
         AVEKIN_QM     0.0000000000000000E+00
         AVETEMP_QM     0.0000000000000000E+00
         AVEVOL     2.1331414786626332E+05
         AVECELL_A     4.8437460238121709E+01
         AVECELL_B     4.6608961231948342E+01
         AVECELL_C     9.4486306644281314E+01
         AVEALPHA     9.0000000000000028E+01
         AVEBETA     9.0000000000000028E+01
         AVEGAMMA     9.0000000000000028E+01
         AVE_ECONS    -5.6609507732384850E+02
         AVE_PRESS     0.0000000000000000E+00
         AVE_PXX     0.0000000000000000E+00
       &END RESTART_AVERAGES
     &END AVERAGES
     &PRINT
       &TEMP_KIND  SILENT
       &END TEMP_KIND
     &END PRINT
   &END MD
   &FREE_ENERGY
     &METADYN
       MIN_DISP    -1.0000000000000000E+00
       OLD_HILL_NUMBER  0
       OLD_HILL_STEP  0
       DO_HILLS  F
       STEP_START_VAL  78851
       NHILLS_START_VAL  0
       &METAVAR
         SCALE     1.0000000000000000E+00
         COLVAR  1
       &END METAVAR
       &PRINT
         &COLVAR  SILENT
           COMMON_ITERATION_LEVELS  3
           &EACH
             MD  1
           &END EACH
         &END COLVAR
       &END PRINT
     &END METADYN
   &END FREE_ENERGY
   &CONSTRAINT
     &COLLECTIVE
       COLVAR  1
       INTERMOLECULAR  T
       &RESTRAINT
         K     4.4625385281452931E-04
       &END RESTRAINT
     &END COLLECTIVE
     &COLVAR_RESTART
           1.4172945996642325E+01
     &END COLVAR_RESTART
   &END CONSTRAINT
   &PRINT
     &TRAJECTORY  SILENT
       &EACH
         MD  1
       &END EACH
     &END TRAJECTORY
     &VELOCITIES  SILENT
       &EACH
         MD  1
       &END EACH
     &END VELOCITIES
     &FORCES  SILENT
       UNIT eV*angstrom^-1
       &EACH
         MD  1
       &END EACH
     &END FORCES
     &RESTART  SILENT
       &EACH
         MD  1
       &END EACH
     &END RESTART
     &RESTART_HISTORY  SILENT
       &EACH
         MD  100
       &END EACH
     &END RESTART_HISTORY
   &END PRINT
 &END MOTION
 &FORCE_EVAL
   METHOD  QS
   &DFT
     BASIS_SET_FILE_NAME /users/gtocci/scratch_daint_3000/data_cp2k//BASIS_MOLOPT
     POTENTIAL_FILE_NAME /users/gtocci/scratch_daint_3000/data_cp2k//GTH_POTENTIALS
     WFN_RESTART_FILE_NAME ./GRAS-RESTART.wfn
     CHARGE  -1
     &SCF
       MAX_SCF  10
       EPS_SCF     9.9999999999999995E-07
       SCF_GUESS  RESTART
       &OT  T
         MINIMIZER  DIIS
         PRECONDITIONER  FULL_KINETIC
       &END OT
       &OUTER_SCF  T
         EPS_SCF     9.9999999999999995E-07
         MAX_SCF  30
       &END OUTER_SCF
       &PRINT
         &RESTART  SILENT
           ADD_LAST  NUMERIC
           &EACH
             QS_SCF  50
           &END EACH
         &END RESTART
       &END PRINT
     &END SCF
     &QS
       MAP_CONSISTENT  T
       EXTRAPOLATION  ASPC
       EXTRAPOLATION_ORDER  4
     &END QS
     &MGRID
       NGRIDS  5
       CUTOFF     4.6000000000000000E+02
     &END MGRID
     &XC
       DENSITY_CUTOFF     1.0000000000000000E-10
       GRADIENT_CUTOFF     1.0000000000000000E-10
       TAU_CUTOFF     1.0000000000000000E-10
       &XC_GRID
         XC_DERIV  SPLINE2_SMOOTH
       &END XC_GRID
       &XC_FUNCTIONAL  NO_SHORTCUT
         &LIBXC  T
           FUNCTIONAL XC_GGA_X_OPTB88_VDW
         &END LIBXC
         &VWN  T
         &END VWN
       &END XC_FUNCTIONAL
       &VDW_POTENTIAL
         POTENTIAL_TYPE  NON_LOCAL
         &NON_LOCAL
           TYPE  DRSLL
           VERBOSE_OUTPUT  T
           KERNEL_FILE_NAME /users/gtocci/scratch_daint_3000/data_cp2k//vdW_kernel_table.dat
         &END NON_LOCAL
       &END VDW_POTENTIAL
     &END XC
     &REAL_TIME_PROPAGATION
       INITIAL_WFN  SCF_WFN
     &END REAL_TIME_PROPAGATION
     &PRINT
       &MULLIKEN  SILENT
         FILENAME =GRAS.mulliken
       &END MULLIKEN
     &END PRINT
   &END DFT
   &SUBSYS
     &CELL
       A     2.5632000000000001E+01    0.0000000000000000E+00    0.0000000000000000E+00
       B     0.0000000000000000E+00    2.4664400000000022E+01    0.0000000000000000E+00
       C     0.0000000000000000E+00    0.0000000000000000E+00    5.0000000000000028E+01
       MULTIPLE_UNIT_CELL  1 1 1
     &END CELL
     &COORD
C   -5.9259709035458377E+00   -1.2980033516460088E+01   -7.5866673764825299E+00
C   -4.4953349418364779E+00   -1.3016139424559951E+01   -7.4509425532553122E+00
C   -3.8435412043307609E+00   -1.1708633154911627E+01   -7.2914084962113517E+00
C   -2.4113039147607616E+00   -1.1738709617689295E+01   -7.2911680196546875E+00
C   -6.0062370053152359E+00   -1.0505989261141927E+01   -7.2397174978279510E+00
C   -4.5994618753304941E+00   -1.0536332287759977E+01   -7.1565397732515077E+00
C   -3.8482881807217049E+00   -9.2654257836582445E+00   -7.2133695668305098E+00
C   -2.3998675243623215E+00   -9.2506337801925511E+00   -7.1756713836350521E+00
C   -5.9705937357684045E+00   -8.0393473044968253E+00   -7.1993818429214498E+00
C   -4.5230068844448299E+00   -8.0407651222377599E+00   -7.1670656647882778E+00
C   -3.9142290575157834E+00   -6.8142587261733150E+00   -7.3400758781893529E+00
C   -2.4986300279577920E+00   -6.7569319750976504E+00   -7.5000362633155770E+00
C   -6.0146619507143191E+00   -5.5593484077340802E+00   -7.3386637422375420E+00
C   -4.6021908933630709E+00   -5.5801432003245690E+00   -7.3988873472358945E+00
C   -3.8581800552585794E+00   -4.2927762456517877E+00   -7.5116150225848779E+00
C   -2.4363007182978955E+00   -4.2932632304376517E+00   -7.5417662024949816E+00
C   -5.9798567951125214E+00   -3.0978990834742861E+00   -7.3832967199248491E+00
C   -4.5593410490763926E+00   -3.1153545636443272E+00   -7.4576209757860470E+00
C   -3.7625840009488440E+00   -1.4185918501882878E+01   -7.4971445427996182E+00
C   -2.3478616965967842E+00   -1.4188846683766409E+01   -7.3700668523643200E+00
C   -1.6872448426650499E+00   -1.2965637791108223E+01   -7.4044533379504198E+00
C   -2.9087361561044239E-01   -1.2948385057880017E+01   -7.3217995931714963E+00
C    4.2630888006040341E-01   -1.1731854035629960E+01   -7.3735960187647516E+00
C    1.8905563509921648E+00   -1.1748507011694761E+01   -7.2699859915790563E+00
C   -1.7148043430282007E+00   -1.0445838027225617E+01   -7.2650095675553654E+00
C   -2.7949339333736845E-01   -1.0444893963581315E+01   -7.3784192161131115E+00
C    4.4185795059594041E-01   -9.2304335122581076E+00   -7.4192693712440914E+00
C    1.8303792188252312E+00   -9.2233488893023488E+00   -7.4937264411871363E+00
C   -1.7252135496447967E+00   -8.0323679164629720E+00   -7.4385338638245262E+00
C   -2.7767602850018680E-01   -8.0169738974605593E+00   -7.5118709763627747E+00
C    4.5151647766598069E-01   -6.7875508832862463E+00   -7.6200032792328081E+00
C    1.8786038272526067E+00   -6.7972683728129626E+00   -7.5714467396035481E+00
C   -1.7390370572837752E+00   -5.5279708088179493E+00   -7.5631354334442635E+00
C   -3.0442709675943963E-01   -5.5397320366098803E+00   -7.5989425389513379E+00
C    3.7849191900125018E-01   -4.3221624283912394E+00   -7.5719653337421100E+00
C    1.7801061138299956E+00   -4.2999200035236012E+00   -7.5863518370220753E+00
C   -1.7319949346692782E+00   -3.0960730135831991E+00   -7.5928456460510017E+00
C   -3.2639648251850539E-01   -3.0871846698415015E+00   -7.6761254773244669E+00
C    4.5764570491889373E-01   -1.4203079953335227E+01   -7.2975793053327953E+00
C    1.8458898643615735E+00   -1.4253274442108498E+01   -7.2538391494123866E+00
C    2.6060126032647855E+00   -1.3001476576535728E+01   -7.3482996419950597E+00
C    3.9780156671826838E+00   -1.2976763160519724E+01   -7.3981801929124709E+00
C    4.7191328927700216E+00   -1.1695395455610754E+01   -7.4517914556825922E+00
C    6.1377651321243700E+00   -1.1692016128049135E+01   -7.5821042558518288E+00
C    2.5360330541113321E+00   -1.0488097947061611E+01   -7.3772714936844004E+00
C    3.9371068059072662E+00   -1.0470622466566963E+01   -7.4970329164321567E+00
C    4.6454337027523565E+00   -9.2292448319431486E+00   -7.7109745718946394E+00
C    6.0901062333929561E+00   -9.2174151867023291E+00   -7.7435260651996813E+00
C    2.5599473040350991E+00   -8.0422429941087934E+00   -7.5118351480999328E+00
C    4.0022804049479372E+00   -7.9559067028172503E+00   -7.6609621841167508E+00
C    4.7290912366261368E+00   -6.7474556850571945E+00   -7.6682863254954619E+00
C    6.1331302162135293E+00   -6.7284470486710042E+00   -7.7231033221893277E+00
C    2.5341921081123293E+00   -5.4992074283081465E+00   -7.6650910440374540E+00
C    3.9908973942596893E+00   -5.4929537907295618E+00   -7.6489381933168303E+00
C    4.6687342595550501E+00   -4.2896444973479211E+00   -7.6393360493980316E+00
C    6.1354179390472590E+00   -4.2767346576732894E+00   -7.5720466609118757E+00
C    2.4722598092766694E+00   -3.0377097960787771E+00   -7.5807821772520194E+00
C    3.9726579640662418E+00   -3.0651458840323138E+00   -7.5859483394999989E+00
C    4.6946312012657776E+00   -1.4229517738581647E+01   -7.3299750629034390E+00
C    6.1175345239967491E+00   -1.4159526500880657E+01   -7.3870465583711837E+00
C   -6.0116632605627691E+00   -6.0049230704110401E-01   -7.4858299481834978E+00
C   -4.6170660653951110E+00   -6.4732848070225080E-01   -7.5290213682545639E+00
C   -3.8732311395698611E+00    5.7023611803003371E-01   -7.4342021749180045E+00
C   -2.4148293347759968E+00    5.9841110376544215E-01   -7.3712566221166682E+00
C   -5.9585917495416405E+00    1.8709190751852893E+00   -7.4773223986621868E+00
C   -4.5578010737200749E+00    1.8388532014687082E+00   -7.3808337451119366E+00
C   -3.8520104482367548E+00    3.1127688133551654E+00   -7.3594932148214829E+00
C   -2.4439694922956421E+00    3.1137374515242477E+00   -7.3550911673137360E+00
C   -5.9968428379921264E+00    4.3441946447638990E+00   -7.5300648531255332E+00
C   -4.5949294445808553E+00    4.3508429453354172E+00   -7.4100372303705111E+00
C   -3.8692214204760553E+00    5.5433187821861880E+00   -7.4779965767150154E+00
C   -2.4690334167134558E+00    5.5509481549638311E+00   -7.4338608051613040E+00
C   -5.9739141582592872E+00    6.7822861009749857E+00   -7.5916849042424213E+00
C   -4.5395862205688733E+00    6.7887538142943926E+00   -7.5621185768230825E+00
C   -3.8181092978112279E+00    7.9929700353069570E+00   -7.5437578793242333E+00
C   -2.4220574863550457E+00    8.0145638983015992E+00   -7.4597703009171443E+00
C   -5.9015719758897163E+00    9.2591669319205394E+00   -7.7213172642160277E+00
C   -4.4649716879350585E+00    9.2427258013027682E+00   -7.6736470014584519E+00
C   -3.8450165224806820E+00   -1.9029268878252654E+00   -7.5072939915506884E+00
C   -2.4428383090557539E+00   -1.8885111481847399E+00   -7.5831502351664577E+00
C   -1.7208189986589679E+00   -6.0408059096861322E-01   -7.4348353490106751E+00
C   -3.0742287037861449E-01   -5.7797717676560501E-01   -7.6017404743723658E+00
C    4.1828463980349462E-01    6.4002219218132594E-01   -7.5850363759873316E+00
C    1.8618376893820425E+00    6.8089676522266640E-01   -7.6277463285334077E+00
C   -1.7022077914724743E+00    1.8536627543561595E+00   -7.3175937696111868E+00
C   -2.7611205200416539E-01    1.8908214123835836E+00   -7.5434665825289198E+00
C    4.5303656498762401E-01    3.1249013671811343E+00   -7.5231456202313636E+00
C    1.9424668954743338E+00    3.1183296011305193E+00   -7.5017067414448171E+00
C   -1.7720423157254583E+00    4.3354454759176999E+00   -7.4558582921214978E+00
C   -2.6581618187383160E-01    4.3318641629941377E+00   -7.4055413048494136E+00
C    4.1072462817847549E-01    5.5760366585318275E+00   -7.3574170095847551E+00
C    1.8861856769996694E+00    5.5796166250273238E+00   -7.3075651096857639E+00
C   -1.7369399468822622E+00    6.8135476942599285E+00   -7.4364469695502073E+00
C   -3.2956996199337735E-01    6.7602400242407574E+00   -7.3675022563367909E+00
C    4.3021915807970201E-01    8.0117108645232111E+00   -7.2688443961009268E+00
C    1.8208888105118541E+00    7.9771793248665812E+00   -7.2181706164512036E+00
C   -1.6762563978848255E+00    9.2314678503839147E+00   -7.4244110578959308E+00
C   -2.9269121037086732E-01    9.2139839318400067E+00   -7.3359858675563707E+00
C    3.8160809674695134E-01   -1.8103469133627625E+00   -7.6071381032314358E+00
C    1.7914833758078126E+00   -1.7634434560729517E+00   -7.5454242898326358E+00
C    2.5392987521276047E+00   -5.5567058723530827E-01   -7.4823997856770070E+00
C    3.9929571839964053E+00   -5.4339701503096516E-01   -7.5159315302637415E+00
C    4.7571451850717157E+00    6.6720201448038241E-01   -7.4764037937861803E+00
C    6.1691294530854055E+00    6.5991796987336260E-01   -7.4752853504830625E+00
C    2.6629132960401054E+00    1.8831327604674191E+00   -7.5364046306835739E+00
C    4.0231754714636683E+00    1.8569338305599841E+00   -7.5004149385070855E+00
C    4.7509389231429360E+00    3.1070663683505111E+00   -7.3693628935245155E+00
C    6.2157074150822789E+00    3.1138674728905089E+00   -7.4729969086221475E+00
C    2.5843847085999756E+00    4.3831308376759441E+00   -7.4280086559423504E+00
C    4.0773958711862495E+00    4.3067656878226739E+00   -7.4412992009567951E+00
C    4.7580935269988798E+00    5.5238815682308635E+00   -7.2961339635860476E+00
C    6.1771297397340597E+00    5.5602378405383170E+00   -7.2348928630440277E+00
C    2.5770031871666372E+00    6.8322622974408151E+00   -7.2745270371748578E+00
C    4.0074167224701558E+00    6.7859239000730360E+00   -7.2670327181024081E+00
C    4.7086431762374099E+00    8.0072882770318792E+00   -7.2052701015636185E+00
C    6.1416506718710373E+00    8.0654296360752920E+00   -7.1311139162169361E+00
C    2.5570909440908083E+00    9.1665024756979960E+00   -7.2380409404122554E+00
C    4.0190503140342182E+00    9.2031810848097528E+00   -7.2705861938399439E+00
C    4.7264136587865409E+00   -1.7773288964401819E+00   -7.5359010069270598E+00
C    6.1905127864199034E+00   -1.7718454164589337E+00   -7.5370750543777261E+00
C    6.8294845705971277E+00   -1.2909219369104067E+01   -7.5282640590353749E+00
C    8.2729357010962961E+00   -1.2892107017722997E+01   -7.4591666528902483E+00
C    8.9829538944011187E+00   -1.1675188166092134E+01   -7.4517256121119928E+00
C    1.0375577905677371E+01   -1.1727027985139241E+01   -7.3324346594775047E+00
C    6.7922310966451391E+00   -1.0452258004710671E+01   -7.6563318077243681E+00
C    8.2767646253353124E+00   -1.0448050368470017E+01   -7.6069587225021387E+00
C    8.9997309917482564E+00   -9.2607367892911778E+00   -7.6734340552363820E+00
C    1.0380654362756482E+01   -9.2355879207609011E+00   -7.4897569609543773E+00
C    6.8543889409816448E+00   -8.0151974440047464E+00   -7.8004468717845246E+00
C    8.2678919098263570E+00   -8.0298898468275350E+00   -7.7732267763132343E+00
C    8.9590380374281704E+00   -6.7781824065244187E+00   -7.7137825634365349E+00
C    1.0408254669134186E+01   -6.7325733185554713E+00   -7.6370668446170171E+00
C    6.8221887007716973E+00   -5.4669269990899130E+00   -7.6693177854882748E+00
C    8.2731418781172259E+00   -5.5223183270034584E+00   -7.7119926954493927E+00
C    8.9681091548843952E+00   -4.3290016950523658E+00   -7.5424757603477506E+00
C    1.0391575901440930E+01   -4.2619397417944898E+00   -7.5373593027511605E+00
C    6.8558950471247577E+00   -3.0437078596057878E+00   -7.6002295684503185E+00
C    8.2876459707575840E+00   -3.1136868779476727E+00   -7.5515031255766916E+00
C    9.0243831207756795E+00   -1.4182509837879415E+01   -7.4884656420524491E+00
C    1.0468509113709960E+01   -1.4156462894816281E+01   -7.3899853728777130E+00
C    1.1122461149057004E+01   -1.2886253736881464E+01   -7.3675321535508198E+00
C    1.2555743190188736E+01   -1.2869528481510009E+01   -7.2755358553821807E+00
C    1.3266621038069120E+01   -1.1632556845797840E+01   -7.2740900264662240E+00
C    1.4689500614547564E+01   -1.1739808189277447E+01   -7.3020799190702190E+00
C    1.1067944512069538E+01   -1.0454665553852818E+01   -7.3892142911144285E+00
C    1.2509318500718965E+01   -1.0431789409409642E+01   -7.3131927399971506E+00
C    1.3231175656751777E+01   -9.2315795524167044E+00   -7.3109094787314381E+00
C    1.4666143996498871E+01   -9.2399504719325254E+00   -7.2815601817714297E+00
C    1.1119575990556699E+01   -7.9594329018135594E+00   -7.5291193286017242E+00
C    1.2549040489002069E+01   -7.9527581054739187E+00   -7.3750609719193561E+00
C    1.3303387464033340E+01   -6.7849081720664159E+00   -7.3926007691669868E+00
C    1.4712759560961320E+01   -6.7541665421557608E+00   -7.3153567363328138E+00
C    1.1116112153707356E+01   -5.5502646753512233E+00   -7.6213431077926117E+00
C    1.2596030157106517E+01   -5.5516934473040767E+00   -7.5221703501962685E+00
C    1.3300228933365950E+01   -4.3147946573134144E+00   -7.5870192870973021E+00
C    1.4721204250246423E+01   -4.2812820787898840E+00   -7.3980408793806278E+00
C    1.1171566434078395E+01   -3.0547722710318017E+00   -7.4129720680483580E+00
C    1.2605119148212074E+01   -3.1031483686458210E+00   -7.5444496078029877E+00
C    1.3238122211419814E+01   -1.4127638777661963E+01   -7.4803344510380390E+00
C    1.4697950574722217E+01   -1.4193387171174647E+01   -7.4662403710607608E+00
C    1.5412246882174189E+01   -1.2944325887517223E+01   -7.4145655282892813E+00
C    1.6828169743368150E+01   -1.2940274656020478E+01   -7.4354337833954398E+00
C    1.7541244894722826E+01   -1.1708031437375411E+01   -7.3684485799698631E+00
C    1.8967351668908375E+01   -1.1721537319882419E+01   -7.3925789621836540E+00
C    1.5406136294984645E+01   -1.0506234762334945E+01   -7.3067791848729451E+00
C    1.6838614708349645E+01   -1.0502536357080515E+01   -7.3487016463899133E+00
C    1.7526518441102276E+01   -9.2593975794666541E+00   -7.2997825983092577E+00
C    1.8943783338867274E+01   -9.2630435669186486E+00   -7.2436495348033487E+00
C    1.5387876705624864E+01   -7.9999773174550279E+00   -7.1612341707259590E+00
C    1.6831241231419472E+01   -8.0525732218187240E+00   -7.2103428018492295E+00
C    1.7495613973122339E+01   -6.7897210781027049E+00   -7.2397401308467169E+00
C    1.8917047194507120E+01   -6.7972021989534577E+00   -7.2657969117600709E+00
C    1.5400559217451185E+01   -5.5429850673607071E+00   -7.3883851518929404E+00
C    1.6794805882353607E+01   -5.5335541030603919E+00   -7.3119108387928851E+00
C    1.7509072812918888E+01   -4.3229248738180166E+00   -7.3508401618210968E+00
C    1.8922091780713046E+01   -4.2855025127737738E+00   -7.4235053311302774E+00
C    1.5435716844007011E+01   -3.0207170746432035E+00   -7.2868282970518372E+00
C    1.6823976398410633E+01   -3.0482604581995645E+00   -7.4210593182913422E+00
C    1.7535597601641442E+01   -1.4180162589557959E+01   -7.5627161992542149E+00
C    1.8983730342019175E+01   -1.4176253642552171E+01   -7.6063972805976148E+00
C    6.9144651752811637E+00   -5.4481482888124766E-01   -7.4767156155728065E+00
C    8.3701956951926295E+00   -5.6263907768810673E-01   -7.4693483608808480E+00
C    9.0423267475250135E+00    6.8802511242307640E-01   -7.4795334303790915E+00
C    1.0462335490442436E+01    6.6274843050820753E-01   -7.5848279717214915E+00
C    6.9231200547885106E+00    1.8881942145411703E+00   -7.4396225485766463E+00
C    8.3185118915409095E+00    1.9085262264995351E+00   -7.5070143046234623E+00
C    9.0080092717638856E+00    3.1327737727587048E+00   -7.5376566537154561E+00
C    1.0445763974421697E+01    3.1007449027455820E+00   -7.5473327137167940E+00
C    6.9202064657311873E+00    4.3729848846727668E+00   -7.4728692722862711E+00
C    8.3439583262474155E+00    4.3979374429522871E+00   -7.5667144049954072E+00
C    8.9829403804016845E+00    5.6227615845479342E+00   -7.5357736196698095E+00
C    1.0413649506996574E+01    5.5838637773095527E+00   -7.5531385307118670E+00
C    6.8772522450292630E+00    6.8369894579535613E+00   -7.2190035088287186E+00
C    8.3013277108197130E+00    6.8226428285888394E+00   -7.4259094509920667E+00
C    9.0066957167345763E+00    8.0291115148275480E+00   -7.4053746570222962E+00
C    1.0451634009981101E+01    8.0786754033500703E+00   -7.5055048884866684E+00
C    6.8735315723637012E+00    9.2905820814039402E+00   -7.2627592804746497E+00
C    8.2779167348775253E+00    9.2957615077508251E+00   -7.3884523383456120E+00
C    9.0299491990567944E+00   -1.8424402714080326E+00   -7.4706814748122055E+00
C    1.0477789335475421E+01   -1.8607942992945630E+00   -7.4645773343984310E+00
C    1.1155260643059787E+01   -6.0614917569235005E-01   -7.4886913375839317E+00
C    1.2552578737940461E+01   -5.8119670859949069E-01   -7.4884295125932141E+00
C    1.3276728150848617E+01    6.4386832465753330E-01   -7.6273521432990323E+00
C    1.4694841502137336E+01    6.6384199534380484E-01   -7.5879597968732417E+00
C    1.1163628788679759E+01    1.8540280968438994E+00   -7.5735275745729584E+00
C    1.2563883647427073E+01    1.8772572118774526E+00   -7.6297383819245068E+00
C    1.3271480294290095E+01    3.1154846493662660E+00   -7.6392789295135852E+00
C    1.4695861471157802E+01    3.1682973426163179E+00   -7.6574783100959447E+00
C    1.1100636582286109E+01    4.3656618668839693E+00   -7.5463035190736445E+00
C    1.2561089719318449E+01    4.3677820569270791E+00   -7.6118182868295188E+00
C    1.3309282338208925E+01    5.6082909008773578E+00   -7.6403725002072180E+00
C    1.4707828398621697E+01    5.5804502024178069E+00   -7.5290192925020207E+00
C    1.1144799980193433E+01    6.8543636385920630E+00   -7.4923354984287052E+00
C    1.2593916155387340E+01    6.8151023772366068E+00   -7.5553117410860091E+00
C    1.3276516254107745E+01    8.0248330721475245E+00   -7.5204910324479251E+00
C    1.4650556231932081E+01    8.0485862734975377E+00   -7.4751483268995926E+00
C    1.1120673691365436E+01    9.2686467059042297E+00   -7.4573777044978398E+00
C    1.2539058613272104E+01    9.2711470518327523E+00   -7.4669151879016971E+00
C    1.3325927445874777E+01   -1.8427670857959666E+00   -7.4245129277551234E+00
C    1.4725181352805482E+01   -1.7866088569579792E+00   -7.3345311285766908E+00
C    1.5424120005017860E+01   -5.6933937636424348E-01   -7.5618160501395506E+00
C    1.6846900263817624E+01   -5.5024227671562653E-01   -7.4833563369955067E+00
C    1.7536686985164827E+01    6.6025462145302860E-01   -7.5074990532048211E+00
C    1.8929677703326838E+01    6.0098487965900849E-01   -7.4513258291479358E+00
C    1.5413432553574404E+01    1.9030682900852924E+00   -7.6292038443164660E+00
C    1.6835139312569986E+01    1.9181493865638493E+00   -7.4837033653196459E+00
C    1.7559793027606929E+01    3.1242107595547872E+00   -7.4492057418023698E+00
C    1.8958407896788064E+01    3.1313028747189766E+00   -7.4803411118538072E+00
C    1.5388335785714430E+01    4.3732701259867452E+00   -7.4964060342394010E+00
C    1.6820580642642366E+01    4.3956328258178630E+00   -7.5142851756338924E+00
C    1.7530098313810335E+01    5.6437625110203609E+00   -7.5643874695246218E+00
C    1.8918170823769071E+01    5.5872534556369020E+00   -7.5908462920671500E+00
C    1.5350214939870664E+01    6.8024218152578451E+00   -7.5866168237290657E+00
C    1.6769115112189230E+01    6.8614494764964675E+00   -7.6118499850187487E+00
C    1.7565054116358159E+01    8.0799047730149098E+00   -7.6202207278358447E+00
C    1.8962170183225293E+01    8.0471884680987955E+00   -7.6176436587712413E+00
C    1.5391702943647124E+01    9.2082887694473730E+00   -7.5036115640760395E+00
C    1.6833423598328960E+01    9.2606825057538948E+00   -7.5296244843265017E+00
C    1.7517470398438821E+01   -1.8357355086390925E+00   -7.4398705691320099E+00
C    1.8946031962422193E+01   -1.8485265603517675E+00   -7.3843010323837568E+00
O    2.5780973666835121E+02   -2.2021866900111070E+02   -1.9601930530018987E+00
H    2.5862020451896632E+02   -2.2043999349792347E+02   -1.4332669706433725E+00
H    2.5785914666805235E+02   -2.1929923053160104E+02   -2.2858645336155576E+00
O    2.9050780285494886E+02   -1.8886509279778718E+02    1.4177987180698295E+00
H    2.9030243485880709E+02   -1.8802460055901838E+02    1.9519424991279195E+00
H    2.9053744506316832E+02   -1.8848379227852922E+02    4.8075649477249199E-01
O    1.9767810891900118E+02   -1.3359126532010757E+02    7.1517292651659181E+00
H    1.9690530733960074E+02   -1.3301430917769667E+02    7.5233598194173910E+00
H    1.9732156503103070E+02   -1.3382052676587330E+02    6.2663032280428315E+00
O    3.0315995471933616E+02   -1.9777610329358387E+02   -1.6530418452391821E-01
H    3.0219387619628196E+02   -1.9768320571181150E+02   -3.4016973761811266E-02
H    3.0366590867092782E+02   -1.9699006030310773E+02    2.2838392878825095E-01
O    2.7219622869681888E+02   -9.1221353478775754E+01    1.6792129338223751E+00
H    2.7171786509991125E+02   -9.0398623439751859E+01    1.5383298712650209E+00
H    2.7242110756237042E+02   -9.1221455358260272E+01    2.6840193173453990E+00
O    2.3638238640312628E+02   -1.6351654505814133E+02   -1.2502329788573940E+00
H    2.3548083490539310E+02   -1.6389175168048141E+02   -1.2673080502174268E+00
H    2.3693034045005530E+02   -1.6433636803850163E+02   -1.2466886145876970E+00
O    2.6096724132842985E+02   -1.6749904301481766E+02   -1.6202580274559957E+00
H    2.6166421628197475E+02   -1.6809562949616321E+02   -2.0173394962732267E+00
H    2.6070006058632742E+02   -1.6782745212212893E+02   -7.4520379754980792E-01
O    2.7912921206333738E+02   -2.2885339433373480E+02    9.7698863036848138E+00
H    2.7924869041467281E+02   -2.2857227673676442E+02    8.8502263125605296E+00
H    2.7831830064804672E+02   -2.2847038676686557E+02    1.0109424303024856E+01
O    1.3583292295088606E+02   -1.2111900074834323E+02    8.8943146206226160E+00
H    1.3513864792868247E+02   -1.2123471470645738E+02    8.1627645595126577E+00
H    1.3549977196668101E+02   -1.2049355821034787E+02    9.6007290426204168E+00
O    2.9607263285683786E+02   -1.7728769952476645E+02    1.1468601741790641E+01
H    2.9696448067953907E+02   -1.7694715544770887E+02    1.1197587510598597E+01
H    2.9530097816790368E+02   -1.7685728915493070E+02    1.0925601669061761E+01
O    2.4959902901622755E+02   -1.3968801484287391E+02    3.0654447440742203E+00
H    2.5034236797834885E+02   -1.3909672316268322E+02    3.3101884698437796E+00
H    2.4880785894665425E+02   -1.3909236364021967E+02    3.3979010762386621E+00
O    2.0569789935829394E+02   -1.7711897122992460E+02    4.3695918184037987E+00
H    2.0552066705418468E+02   -1.7809945901261901E+02    4.4562480564538367E+00
H    2.0654852714890581E+02   -1.7706515117434131E+02    4.8618583543530933E+00
O    2.1104156584500524E+02   -2.7711255306889768E+02    9.1998141819320778E-01
H    2.1142540597038618E+02   -2.7623924593076885E+02    1.0760262929402904E+00
H    2.1029900450581135E+02   -2.7728270203888707E+02    1.5638241404461746E+00
O    2.8582296488291598E+02   -3.3050228441002014E+02    9.8649492109972368E+00
H    2.8550247086194742E+02   -3.3064203697368919E+02    8.9676518709374555E+00
H    2.8552305518118067E+02   -3.2959352992175008E+02    1.0018859217849185E+01
O    1.8391565448075809E+02   -7.1977971093545207E+01   -4.2388073933468968E+00
H    1.8310742619660579E+02   -7.2556860300300656E+01   -4.5070783560434613E+00
H    1.8473177802873974E+02   -7.2419499616545636E+01   -4.6449363932113981E+00
O    2.6689032801934076E+02   -9.5046903685611767E+01   -4.2856750211034926E+00
H    2.6733100378128944E+02   -9.5795582593707323E+01   -4.7575786260587050E+00
H    2.6674211426661861E+02   -9.5297433704041126E+01   -3.3382999381872311E+00
O    1.4587301020248591E+02   -8.5990543151520541E+01    1.7014414423130282E+00
H    1.4646429213122397E+02   -8.5302853495210741E+01    1.3261849634474683E+00
H    1.4617083140666048E+02   -8.6925030382445883E+01    1.5012120972477458E+00
O    2.0828091958947508E+02   -2.2419842201715585E+02    5.1947607358567280E+00
H    2.0739406390498323E+02   -2.2390343547902293E+02    5.5209239125690344E+00
H    2.0820587505577518E+02   -2.2418423271746852E+02    4.2400086503903260E+00
O    2.0474934291633579E+02   -1.9109934785018459E+02    1.0018424305714476E+01
H    2.0525236811493664E+02   -1.9024364165748980E+02    1.0065540636914118E+01