 # Version information for this restart file 
 # current date 2020-04-18 02:39:11.393
 # current working dir /scratch/snx3000/gtocci/gtocci/MEMBRANES/AIMD_US_IONS_GRA/us_aimd_new/us_25
 # Program compiled at                              Fri Nov 22 15:19:42 CET 2019
 # Program compiled on                                                  daint102
 # Program compiled for                                   CRAY_XC50-gfortran_gpu
 # Source code revision number                                       git:a698b45
 &GLOBAL
   PRINT_LEVEL  LOW
   PROJECT_NAME GRAS
   RUN_TYPE  MD
   WALLTIME 86400
 &END GLOBAL
 &MOTION
   &MD
     ENSEMBLE  NVT
     STEPS  2000
     TIMESTEP     9.9999999999999989E-01
     STEP_START_VAL  75245
     TIME_START_VAL     7.5244999999937718E+04
     ECONS_START_VAL    -8.3019555307332794E+03
     TEMPERATURE     3.0000000000000000E+02
     TEMP_KIND  T
     &BAROSTAT
       PRESSURE     1.0000000000000000E+00
       TIMECON     9.9999999999999986E+01
       VIRIAL  Z
     &END BAROSTAT
     &THERMOSTAT
       TYPE  NOSE
       REGION  GLOBAL
       &NOSE
         LENGTH  4
         TIMECON     9.9999999999999986E+01
         MTS  2
         &COORD
              -1.4347259125898862E-02   -3.9164602886412281E-01    8.5608956627280719E+00    1.4159792804145091E+01
         &END COORD
         &VELOCITY
               4.8352586794626416E-06   -4.2562264626164057E-05    5.1692597125869500E-04    2.4728182493444640E-04
         &END VELOCITY
         &MASS
               7.0145132684705392E+07    1.6237299232570693E+04    1.6237299232570693E+04    1.6237299232570693E+04
         &END MASS
         &FORCE
              -1.9159171992527133E-10    4.2490404618312183E-08   -5.6698467479997454E-08    2.0870244591164008E-07
         &END FORCE
       &END NOSE
     &END THERMOSTAT
     &AVERAGES  T
       &RESTART_AVERAGES
         ITIMES_START  1
         AVECPU     3.0886931711685634E+01
         AVEHUGONIOT     0.0000000000000000E+00
         AVETEMP_BARO     0.0000000000000000E+00
         AVEPOT    -8.3066944972504807E+03
         AVEKIN     2.0528154039429469E+00
         AVETEMP     3.0009311271141291E+02
         AVEKIN_QM     0.0000000000000000E+00
         AVETEMP_QM     0.0000000000000000E+00
         AVEVOL     2.1331414786626332E+05
         AVECELL_A     4.8437460238121709E+01
         AVECELL_B     4.6608961231948342E+01
         AVECELL_C     9.4486306644281314E+01
         AVEALPHA     9.0000000000000028E+01
         AVEBETA     9.0000000000000028E+01
         AVEGAMMA     9.0000000000000028E+01
         AVE_ECONS    -5.7105242851722926E+02
         AVE_PRESS     0.0000000000000000E+00
         AVE_PXX     0.0000000000000000E+00
       &END RESTART_AVERAGES
     &END AVERAGES
     &PRINT
       &TEMP_KIND  SILENT
       &END TEMP_KIND
     &END PRINT
   &END MD
   &FREE_ENERGY
     &METADYN
       MIN_DISP    -1.0000000000000000E+00
       OLD_HILL_NUMBER  0
       OLD_HILL_STEP  0
       DO_HILLS  F
       STEP_START_VAL  75245
       NHILLS_START_VAL  0
       &METAVAR
         SCALE     1.0000000000000000E+00
         COLVAR  1
       &END METAVAR
       &PRINT
         &COLVAR  SILENT
           COMMON_ITERATION_LEVELS  3
           &EACH
             MD  1
           &END EACH
         &END COLVAR
       &END PRINT
     &END METADYN
   &END FREE_ENERGY
   &CONSTRAINT
     &COLLECTIVE
       COLVAR  1
       INTERMOLECULAR  T
       &RESTRAINT
         K     4.4625385281452931E-04
       &END RESTRAINT
     &END COLLECTIVE
     &COLVAR_RESTART
           2.3621576661070542E+01
     &END COLVAR_RESTART
   &END CONSTRAINT
   &PRINT
     &TRAJECTORY  SILENT
       &EACH
         MD  1
       &END EACH
     &END TRAJECTORY
     &VELOCITIES  SILENT
       &EACH
         MD  1
       &END EACH
     &END VELOCITIES
     &FORCES  SILENT
       UNIT eV*angstrom^-1
       &EACH
         MD  1
       &END EACH
     &END FORCES
     &RESTART  SILENT
       &EACH
         MD  1
       &END EACH
     &END RESTART
     &RESTART_HISTORY  SILENT
       &EACH
         MD  100
       &END EACH
     &END RESTART_HISTORY
   &END PRINT
 &END MOTION
 &FORCE_EVAL
   METHOD  QS
   &DFT
     BASIS_SET_FILE_NAME /users/gtocci/scratch_daint_3000/data_cp2k//BASIS_MOLOPT
     POTENTIAL_FILE_NAME /users/gtocci/scratch_daint_3000/data_cp2k//GTH_POTENTIALS
     WFN_RESTART_FILE_NAME ./GRAS-RESTART.wfn
     CHARGE  -1
     &SCF
       MAX_SCF  10
       EPS_SCF     9.9999999999999995E-07
       SCF_GUESS  RESTART
       &OT  T
         MINIMIZER  DIIS
         PRECONDITIONER  FULL_KINETIC
       &END OT
       &OUTER_SCF  T
         EPS_SCF     9.9999999999999995E-07
         MAX_SCF  30
       &END OUTER_SCF
       &PRINT
         &RESTART  SILENT
           ADD_LAST  NUMERIC
           &EACH
             QS_SCF  50
           &END EACH
         &END RESTART
       &END PRINT
     &END SCF
     &QS
       MAP_CONSISTENT  T
       EXTRAPOLATION  ASPC
       EXTRAPOLATION_ORDER  4
     &END QS
     &MGRID
       NGRIDS  5
       CUTOFF     4.6000000000000000E+02
     &END MGRID
     &XC
       DENSITY_CUTOFF     1.0000000000000000E-10
       GRADIENT_CUTOFF     1.0000000000000000E-10
       TAU_CUTOFF     1.0000000000000000E-10
       &XC_GRID
         XC_DERIV  SPLINE2_SMOOTH
       &END XC_GRID
       &XC_FUNCTIONAL  NO_SHORTCUT
         &LIBXC  T
           FUNCTIONAL XC_GGA_X_OPTB88_VDW
         &END LIBXC
         &VWN  T
         &END VWN
       &END XC_FUNCTIONAL
       &VDW_POTENTIAL
         POTENTIAL_TYPE  NON_LOCAL
         &NON_LOCAL
           TYPE  DRSLL
           VERBOSE_OUTPUT  T
           KERNEL_FILE_NAME /users/gtocci/scratch_daint_3000/data_cp2k//vdW_kernel_table.dat
         &END NON_LOCAL
       &END VDW_POTENTIAL
     &END XC
     &REAL_TIME_PROPAGATION
       INITIAL_WFN  SCF_WFN
     &END REAL_TIME_PROPAGATION
     &PRINT
       &MULLIKEN  SILENT
         FILENAME =GRAS.mulliken
       &END MULLIKEN
     &END PRINT
   &END DFT
   &SUBSYS
     &CELL
       A     2.5632000000000001E+01    0.0000000000000000E+00    0.0000000000000000E+00
       B     0.0000000000000000E+00    2.4664400000000022E+01    0.0000000000000000E+00
       C     0.0000000000000000E+00    0.0000000000000000E+00    5.0000000000000028E+01
       MULTIPLE_UNIT_CELL  1 1 1
     &END CELL
     &COORD
C    5.7322291569994537E+00   -1.4958784000250873E+01   -6.8516391228411067E+00
C    7.1613882330405660E+00   -1.4939904564140257E+01   -6.8817092624323983E+00
C    7.8400526255559617E+00   -1.3687834675658651E+01   -6.9186595563936679E+00
C    9.2459121680195473E+00   -1.3697834018172589E+01   -6.7710973728546655E+00
C    5.7572677120281179E+00   -1.2467799470319475E+01   -6.8614457089085903E+00
C    7.1605021769619377E+00   -1.2427286188293023E+01   -6.8527419160117695E+00
C    7.8834682274610834E+00   -1.1226094936233491E+01   -6.7365499620817371E+00
C    9.3032244168698490E+00   -1.1281222832015697E+01   -6.7366457815210943E+00
C    5.7548173531991740E+00   -1.0022921155558013E+01   -6.6711767031818390E+00
C    7.1675800964716165E+00   -1.0003660900311010E+01   -6.6046777331736504E+00
C    7.8297996358621020E+00   -8.7624967109121972E+00   -6.5987486746014978E+00
C    9.2820139901063303E+00   -8.7848225362750263E+00   -6.5901038705964217E+00
C    5.7024129926724330E+00   -7.5967153358056461E+00   -6.7081851384512996E+00
C    7.1358015832250397E+00   -7.5376871985827663E+00   -6.7027842497582659E+00
C    7.8234281367132201E+00   -6.3190093434571279E+00   -6.6578747492995705E+00
C    9.2455435382511713E+00   -6.3304123114002744E+00   -6.6071049781463200E+00
C    5.6620400565710405E+00   -5.0817047121948233E+00   -6.7350320669434822E+00
C    7.1066032500417879E+00   -5.0618305214193677E+00   -6.6794160270716549E+00
C    7.9002225221100097E+00   -1.6122313806086709E+01   -6.9073461164762460E+00
C    9.2706538587909950E+00   -1.6174322957444460E+01   -6.9201758558229605E+00
C    9.9728064966390342E+00   -1.4939893780230470E+01   -6.8674587231877409E+00
C    1.1397046459313833E+01   -1.4938426544665006E+01   -6.8202927612949980E+00
C    1.2100647615958348E+01   -1.3707797637543033E+01   -6.8121541606273563E+00
C    1.3544144753255798E+01   -1.3681344340378264E+01   -6.8474037199459898E+00
C    9.9972773266140784E+00   -1.2518093639963135E+01   -6.7205612804827135E+00
C    1.1407869919873127E+01   -1.2490188243420072E+01   -6.8082156666616722E+00
C    1.2100241319938267E+01   -1.1258204718678126E+01   -6.7175158104437616E+00
C    1.3559932540779224E+01   -1.1249241774292262E+01   -6.6684702871414512E+00
C    1.0007666028171110E+01   -1.0083155781635050E+01   -6.7140310659129856E+00
C    1.1402727445416120E+01   -1.0039394379000459E+01   -6.7023778947107253E+00
C    1.2075664421287563E+01   -8.7987511914998766E+00   -6.7873785271841092E+00
C    1.3468046684424845E+01   -8.7515691688684019E+00   -6.8270731510785847E+00
C    1.0018365979069381E+01   -7.5801027670972054E+00   -6.6403344250856131E+00
C    1.1428095641796737E+01   -7.5471768567479165E+00   -6.7329481209391489E+00
C    1.2122947558847699E+01   -6.2966559028679878E+00   -6.8012009482533529E+00
C    1.3537436360477749E+01   -6.2658643738970961E+00   -6.9673791283020439E+00
C    9.9511516082989768E+00   -5.1067211787067892E+00   -6.7600652643459291E+00
C    1.1369048407246121E+01   -5.1048562979213017E+00   -6.7662564860641563E+00
C    1.2117459719751944E+01   -1.6187665646910464E+01   -6.9294698948745808E+00
C    1.3584445703197467E+01   -1.6170102909188671E+01   -6.9065006491318064E+00
C    1.4309299211881976E+01   -1.4889213735651666E+01   -6.8703276797098489E+00
C    1.5720176247666910E+01   -1.4926556049060661E+01   -6.9207608450697178E+00
C    1.6411659359769029E+01   -1.3705464180060023E+01   -6.8546849857671850E+00
C    1.7841365902324043E+01   -1.3759171555046791E+01   -6.9273149273186068E+00
C    1.4246079541296590E+01   -1.2494269908514262E+01   -6.7069657859010618E+00
C    1.5656999092185517E+01   -1.2470072178460093E+01   -6.7551926999763214E+00
C    1.6380923715847882E+01   -1.1252417557411416E+01   -6.8738740650194359E+00
C    1.7846096344858108E+01   -1.1279630167968461E+01   -6.8810387832203164E+00
C    1.4261368631692040E+01   -1.0000500183520465E+01   -6.7696061825654565E+00
C    1.5673811490534625E+01   -1.0000232121802265E+01   -6.9535635746226072E+00
C    1.6367693530906077E+01   -8.7936714557864164E+00   -7.0055643939903183E+00
C    1.7813182609595273E+01   -8.7698591595527571E+00   -6.9017494917905573E+00
C    1.4248479218046624E+01   -7.5232034399112910E+00   -6.9842904494856528E+00
C    1.5640839900631962E+01   -7.5382289166570740E+00   -7.0238801302128424E+00
C    1.6359865254539123E+01   -6.3213548865635785E+00   -6.9007133613321869E+00
C    1.7803139850962907E+01   -6.3558475668569194E+00   -6.9084708970691810E+00
C    1.4260902146755248E+01   -5.0255872967690784E+00   -7.0416146927952115E+00
C    1.5712020329202806E+01   -5.0922344883486774E+00   -6.9496638680614220E+00
C    1.6431570539587625E+01   -1.6246697742246049E+01   -6.9620924458068059E+00
C    1.7886593208053455E+01   -1.6246927608464535E+01   -7.0840570270217178E+00
C    5.7625669926135776E+00   -2.6835063668095014E+00   -6.9232117758952354E+00
C    7.1394947374073618E+00   -2.6390847724681255E+00   -6.8664918368085761E+00
C    7.8373445225464549E+00   -1.4222035652654330E+00   -7.0602199860608055E+00
C    9.2943964282978424E+00   -1.4274206023950247E+00   -7.0277270863082881E+00
C    5.7407280220031751E+00   -1.8360663857354120E-01   -7.1149455889727298E+00
C    7.1613982394479905E+00   -1.9273314284294740E-01   -7.1110261470807883E+00
C    7.8594892503877016E+00    1.0614305035001697E+00   -7.1154014770631253E+00
C    9.3002656733887559E+00    1.0645679389834430E+00   -7.0942367492481599E+00
C    5.7683347752892340E+00    2.3060538768295684E+00   -7.0879969310849305E+00
C    7.1805315065157096E+00    2.3417253807170066E+00   -7.0247026550839582E+00
C    7.8906521891594714E+00    3.5839734575967523E+00   -7.0747286929302158E+00
C    9.3143668187840394E+00    3.5212096679420362E+00   -7.1558468069052532E+00
C    5.7303545365763036E+00    4.7942922605360749E+00   -6.9652277501534412E+00
C    7.1293426209572379E+00    4.7683427461033494E+00   -7.0508756018626331E+00
C    7.8612118176925083E+00    6.0380117817755892E+00   -7.0413380093241420E+00
C    9.2774060591864895E+00    6.0310738774467554E+00   -7.0530850681434938E+00
C    5.8143924493836678E+00    7.2973086928764825E+00   -6.9591177388801917E+00
C    7.1755581816999277E+00    7.2848387416304972E+00   -6.9426694738983503E+00
C    7.8714205604639700E+00   -3.8594784007429812E+00   -6.7702574965932172E+00
C    9.2982541394286233E+00   -3.8855991921162842E+00   -6.8844838683371137E+00
C    1.0020245531335295E+01   -2.6321786102682303E+00   -6.9827018722679304E+00
C    1.1433036674500219E+01   -2.6176690389839301E+00   -6.9560380017534396E+00
C    1.2139315638082943E+01   -1.3817123173380355E+00   -7.0177716779177786E+00
C    1.3557903650619503E+01   -1.3741168599415037E+00   -7.0284228405814124E+00
C    9.9979180184646452E+00   -1.9528311948653837E-01   -7.0932822118987104E+00
C    1.1427982067527656E+01   -1.6899512622096555E-01   -7.0486803587836082E+00
C    1.2189325945896698E+01    1.1233914232598965E+00   -7.1176606848706836E+00
C    1.3566336330334437E+01    1.0806239314410786E+00   -7.1158845902368446E+00
C    1.0005442606239836E+01    2.2799279176547298E+00   -7.1295308465981870E+00
C    1.1441830854884087E+01    2.3040865629563454E+00   -7.0613905527692165E+00
C    1.2135779294271833E+01    3.5636759775391118E+00   -7.1028265730967419E+00
C    1.3562388118174981E+01    3.6045338397336515E+00   -7.0426903118646695E+00
C    1.0001722248259556E+01    4.7717987930693013E+00   -7.0920303336120751E+00
C    1.1418424118015707E+01    4.7768249165358760E+00   -6.9639718268717212E+00
C    1.2126699905269776E+01    5.9876968911908888E+00   -6.9181395341504084E+00
C    1.3547608407340126E+01    5.9940656823947238E+00   -6.9591170606252515E+00
C    9.9917246270796198E+00    7.2812446708952576E+00   -6.9481132600692943E+00
C    1.1420663813490208E+01    7.2247993382859219E+00   -6.9388825518943786E+00
C    1.2088227196062720E+01   -3.8794767747045023E+00   -6.8235998877162087E+00
C    1.3515248079834699E+01   -3.8510779101940487E+00   -6.9831319152905165E+00
C    1.4263582273922186E+01   -2.5954720181148536E+00   -7.0840787510210328E+00
C    1.5708952629465763E+01   -2.6291287890853887E+00   -7.1797900256712257E+00
C    1.6443639747957878E+01   -1.3942067511488614E+00   -7.2282356936417065E+00
C    1.7853733363117318E+01   -1.4214201002154911E+00   -7.2007620795721383E+00
C    1.4271350254457808E+01   -1.3976836004425097E-01   -7.0908322884686541E+00
C    1.5702975062358272E+01   -1.3989560275388735E-01   -7.1304919912014944E+00
C    1.6412823896835004E+01    1.0579811654924147E+00   -7.2981965780870164E+00
C    1.7847604376722781E+01    1.0754932418083563E+00   -7.3571477881382039E+00
C    1.4253783989434252E+01    2.3342716861429857E+00   -7.0878881696974378E+00
C    1.5694770544618997E+01    2.3134915646593952E+00   -7.1650858906508192E+00
C    1.6430832349782769E+01    3.5184573630862386E+00   -7.1816380957760861E+00
C    1.7868788795802256E+01    3.5032284958776221E+00   -7.2246045054524819E+00
C    1.4271890793815698E+01    4.7668060024516832E+00   -7.1133273329329727E+00
C    1.5723810932077296E+01    4.7688378061801231E+00   -7.1143707944857804E+00
C    1.6441273539899569E+01    6.0080901952639527E+00   -7.1622386982860853E+00
C    1.7859762076485371E+01    5.9654675041128522E+00   -7.2909374451823430E+00
C    1.4265444611708995E+01    7.2402977480035116E+00   -6.9874394579626316E+00
C    1.5687841304346870E+01    7.1860783452470152E+00   -7.0472518444545047E+00
C    1.6429826507654823E+01   -3.8349525471338270E+00   -7.1314310869615252E+00
C    1.7868503937428418E+01   -3.8760436850353241E+00   -7.0742865130821517E+00
C    1.8580196102811101E+01   -1.4988712842932394E+01   -7.0239954835398848E+00
C    2.0007644159032040E+01   -1.4999271611379299E+01   -7.2280533596930798E+00
C    2.0695917275197907E+01   -1.3712943013761683E+01   -7.2630971442162862E+00
C    2.2154542626382529E+01   -1.3728036505204527E+01   -7.3570989326063536E+00
C    1.8541709914938924E+01   -1.2504319471295629E+01   -7.0062796540638104E+00
C    1.9955356720410634E+01   -1.2466787170442515E+01   -7.0812066565370708E+00
C    2.0715572021256076E+01   -1.1290847005424590E+01   -7.1428870223504237E+00
C    2.2127658880120929E+01   -1.1229441954251723E+01   -7.1851462497866585E+00
C    1.8517577870969763E+01   -9.9968499068894783E+00   -6.8816155602325244E+00
C    2.0002066424036524E+01   -1.0014354820857166E+01   -6.9981316682176749E+00
C    2.0727783182163748E+01   -8.7905769502248639E+00   -6.9934446004431070E+00
C    2.2164828908365390E+01   -8.7892780493951079E+00   -7.1272302591255592E+00
C    1.8522192106873959E+01   -7.5813987938827516E+00   -6.8803884828886570E+00
C    1.9954875758432355E+01   -7.5996351769059629E+00   -6.9911873507894198E+00
C    2.0655016387476312E+01   -6.3860876048549411E+00   -7.0419495155614520E+00
C    2.2115316175096229E+01   -6.3457222610377766E+00   -7.0875127067482131E+00
C    1.8528172665085890E+01   -5.1228293952797666E+00   -6.8526159156739253E+00
C    1.9949752415571389E+01   -5.1521614589660958E+00   -6.9711362120917153E+00
C    2.0702391150996107E+01   -1.6235833844959814E+01   -7.4117863564339803E+00
C    2.2115091686403836E+01   -1.6164631627105461E+01   -7.4966711295670851E+00
C    2.2890468709170783E+01   -1.4974923416712016E+01   -7.4215921869764845E+00
C    2.4287925636068969E+01   -1.4999384004680982E+01   -7.3599673319907746E+00
C    2.4977221582655623E+01   -1.3722900341771448E+01   -7.2742669555266675E+00
C    2.6425283303393947E+01   -1.3747322596942254E+01   -7.0511768075904566E+00
C    2.2831757791226945E+01   -1.2475181892988756E+01   -7.3612842502514440E+00
C    2.4268946922834413E+01   -1.2508174684338146E+01   -7.2741360159045927E+00
C    2.4963997638839356E+01   -1.1269373554915537E+01   -7.1199701154923156E+00
C    2.6381767981944193E+01   -1.1282431088470171E+01   -7.0672648690877651E+00
C    2.2863058897693673E+01   -9.9973476767912857E+00   -7.1920230207615177E+00
C    2.4298333415907283E+01   -9.9564228225014162E+00   -7.1410561816245526E+00
C    2.4975589043520245E+01   -8.7344995886013184E+00   -7.1303913168735731E+00
C    2.6399475935985343E+01   -8.7781979458606649E+00   -7.0697113548903046E+00
C    2.2914831395916817E+01   -7.5538923327812126E+00   -7.0732900589950187E+00
C    2.4297509956697180E+01   -7.4767053913301948E+00   -7.1601761182084456E+00
C    2.5006745492480878E+01   -6.2759700005331229E+00   -7.1563175560108192E+00
C    2.6430138401898581E+01   -6.3117695814161179E+00   -7.1269832878241042E+00
C    2.2836091601829342E+01   -5.1221631736157107E+00   -7.1515300517442899E+00
C    2.4252264662399664E+01   -5.0517476574741593E+00   -7.1545983258664387E+00
C    2.4951403553204212E+01   -1.6206230700909007E+01   -7.3161711728157455E+00
C    2.6393936626307948E+01   -1.6176343754726304E+01   -7.1501469796649557E+00
C    2.7125446674551910E+01   -1.4981982821773737E+01   -6.9837583984536300E+00
C    2.8554065757372474E+01   -1.4982815137421539E+01   -6.7790999250431279E+00
C    2.9275175878147756E+01   -1.3767617564673532E+01   -6.8539673179252496E+00
C    3.0681259398159153E+01   -1.3749638087228774E+01   -6.9131527382120970E+00
C    2.7093958621099841E+01   -1.2526833786193814E+01   -6.9130502228915640E+00
C    2.8545633379881661E+01   -1.2509056145714188E+01   -6.8771906143761035E+00
C    2.9225883315182045E+01   -1.1307824020726819E+01   -6.7916099356944590E+00
C    3.0684206645965890E+01   -1.1242847877064342E+01   -6.7221528217831414E+00
C    2.7066107284090336E+01   -1.0061845640945277E+01   -7.0395402124502651E+00
C    2.8466443873214878E+01   -1.0063024191828859E+01   -6.7865396523933246E+00
C    2.9233831578207468E+01   -8.8286955856445744E+00   -6.8011644143908523E+00
C    3.0660327725337684E+01   -8.8173472892675555E+00   -6.6649701551566887E+00
C    2.7165333777164587E+01   -7.5618104358028582E+00   -7.1189338810721283E+00
C    2.8537580109573820E+01   -7.5982516747299513E+00   -6.8793417609649232E+00
C    2.9242548329633401E+01   -6.3544055611754899E+00   -6.8696544412287244E+00
C    3.0626549191905280E+01   -6.3585442990704166E+00   -6.7609983906963862E+00
C    2.7096689595986948E+01   -5.1209247320841822E+00   -7.0031641297086837E+00
C    2.8552714593556150E+01   -5.0909585921664640E+00   -6.9285043961331434E+00
C    2.9227155081686334E+01   -1.6240791179142171E+01   -6.8781333735086596E+00
C    3.0647773180228075E+01   -1.6188857172991799E+01   -6.9063983721774163E+00
C    1.8579514706928105E+01   -2.6677378856340757E+00   -7.1709892297767270E+00
C    1.9998329023357265E+01   -2.6599229814606331E+00   -7.1642051908749984E+00
C    2.0707696566268229E+01   -1.4147835472860415E+00   -7.2154834582724785E+00
C    2.2140009215038067E+01   -1.3893618762686768E+00   -7.3432366838121581E+00
C    1.8543213930672955E+01   -1.8841876930061358E-01   -7.2254377925262716E+00
C    1.9969000568837778E+01   -1.7516908936627340E-01   -7.2074559470207973E+00
C    2.0682777067268784E+01    1.0186944232488566E+00   -7.4221916071596405E+00
C    2.2096905803055709E+01    1.0266297241037581E+00   -7.3783763058850615E+00
C    1.8591361730413286E+01    2.3088789021590816E+00   -7.3700481447879991E+00
C    1.9995816055590524E+01    2.2331184337020145E+00   -7.4062679061663204E+00
C    2.0697979416009986E+01    3.4685265113140273E+00   -7.3593619919625279E+00
C    2.2121368277986587E+01    3.4905935395854768E+00   -7.5224274031383560E+00
C    1.8584936629515511E+01    4.7431552385188338E+00   -7.3104696073111120E+00
C    2.0029017636567712E+01    4.7329735935093691E+00   -7.3648497725992659E+00
C    2.0726167462510602E+01    5.9660745689377075E+00   -7.5679916831174294E+00
C    2.2136833681954503E+01    5.9798484649010444E+00   -7.7031836107114717E+00
C    1.8552012460954263E+01    7.1582054506532664E+00   -7.3629047435114581E+00
C    1.9993298386365097E+01    7.1833683943750630E+00   -7.5469401377181580E+00
C    2.0676609829003162E+01   -3.8608848818267099E+00   -7.0872489361688435E+00
C    2.2109240237241007E+01   -3.9320651809566796E+00   -7.1840532031170889E+00
C    2.2814780735421106E+01   -2.6732971667657219E+00   -7.3162122142030857E+00
C    2.4235238283618045E+01   -2.6065611733123637E+00   -7.3094357536193506E+00
C    2.4944900991705627E+01   -1.3551479204420760E+00   -7.1756370681021009E+00
C    2.6405791072355576E+01   -1.4292172025265450E+00   -7.0868163204468120E+00
C    2.2807223659730592E+01   -1.8373490723889288E-01   -7.3360305642873094E+00
C    2.4216702260405668E+01   -1.4136959357504214E-01   -7.1806492961302117E+00
C    2.4940614238791941E+01    1.0699151922713261E+00   -7.2329126710151943E+00
C    2.6364049070362633E+01    1.0798115504231105E+00   -7.1168448089253538E+00
C    2.2829204565958356E+01    2.2728695162138917E+00   -7.4398735034013761E+00
C    2.4239502267942452E+01    2.2855591252355114E+00   -7.3098167419519742E+00
C    2.4998483467654761E+01    3.5280628500914726E+00   -7.3603116819605203E+00
C    2.6402404908509052E+01    3.5792796465941068E+00   -7.1188190400146381E+00
C    2.2821850841285624E+01    4.7302455918981119E+00   -7.7145608892060462E+00
C    2.4291902084382397E+01    4.7078952399784475E+00   -7.5965600391153627E+00
C    2.4964155774155749E+01    5.9540219257565266E+00   -7.4549608176704085E+00
C    2.6330790571280065E+01    6.0184971194885781E+00   -7.2717173818484815E+00
C    2.2817599725328812E+01    7.2109445837276747E+00   -7.6158339288141255E+00
C    2.4224503051764152E+01    7.2493836470404309E+00   -7.4736359926136560E+00
C    2.4956771286743557E+01   -3.8067821975477356E+00   -7.1247978396804275E+00
C    2.6397797833080805E+01   -3.9103005601087126E+00   -7.1184327259439808E+00
C    2.7094733794337159E+01   -2.6653186908506283E+00   -7.1247133601885828E+00
C    2.8499183725697311E+01   -2.6389732568732258E+00   -7.0594509114269322E+00
C    2.9204356748942729E+01   -1.3460044768659027E+00   -7.0728404072030617E+00
C    3.0662373265942634E+01   -1.4366208075877660E+00   -7.0560181238805590E+00
C    2.7083694429853530E+01   -1.4635028331472458E-01   -7.1033500031967209E+00
C    2.8514587971000619E+01   -1.2805239434111820E-01   -7.0761441876341733E+00
C    2.9230805258509136E+01    1.0773219253873048E+00   -7.0685324339025577E+00
C    3.0658948876672273E+01    1.0954374224318477E+00   -7.0252595369340636E+00
C    2.7118303115027107E+01    2.2988182625018867E+00   -7.0820611636697892E+00
C    2.8538997151057359E+01    2.3016331942285739E+00   -7.0202083193278675E+00
C    2.9229820271367942E+01    3.5187341184351628E+00   -6.9784111728116995E+00
C    3.0681127516002146E+01    3.5167347081535607E+00   -7.0138192734831328E+00
C    2.7073215320076120E+01    4.8277009631129300E+00   -7.0811306106017708E+00
C    2.8542648867872664E+01    4.7789149277115630E+00   -7.0316017001182383E+00
C    2.9264227303339698E+01    5.9722209327981135E+00   -6.9610035424228247E+00
C    3.0684627207150331E+01    6.0238060488246061E+00   -6.9067206558891066E+00
C    2.7055876395649410E+01    7.2485249293380587E+00   -7.1657500968811387E+00
C    2.8489154948288164E+01    7.2203767840758539E+00   -6.9241017815152839E+00
C    2.9210902893847731E+01   -3.8553141762852041E+00   -6.9473495294178056E+00
C    3.0591446690530507E+01   -3.8830514672271903E+00   -6.8311153871497572E+00
O    1.8663458248846294E+02    1.3888392861504619E+02    7.2556299574252714E+00
H    1.8606705675765653E+02    1.3938940674080001E+02    6.6044130257758917E+00
H    1.8598755259984497E+02    1.3816229951329348E+02    7.4966144889113098E+00
O    2.3583002579611889E+02    1.6162173343391026E+02   -3.1243709319167654E+00
H    2.3614400847083419E+02    1.6159217366788283E+02   -4.0640071998536005E+00
H    2.3634005979788301E+02    1.6239306500615484E+02   -2.6513844752434843E+00
O    1.5629676270472189E+02    1.6673086984215922E+02    3.0298422159473235E+00
H    1.5602623718835989E+02    1.6583861007734765E+02    2.8320790288155768E+00
H    1.5556522301687068E+02    1.6702621606816601E+02    3.5523902455648106E+00
O    2.3938245476508803E+02    5.7252303134990612E+01    6.9396283075495306E+00
H    2.3840914442368711E+02    5.7405599057523510E+01    7.2123651421404427E+00
H    2.3949801482105971E+02    5.6283681363312489E+01    6.9033887364013218E+00
O    1.7484600302501175E+02    2.2640208777810381E+02    3.7241727249391904E-01
H    1.7401562351317236E+02    2.2588340978669268E+02    5.5915794016966203E-01
H    1.7470998575224792E+02    2.2720300613941467E+02    9.2486500198136234E-01
O    1.6225370495627408E+02    7.4250028919188424E+01    7.9116544932124384E+00
H    1.6126710182359324E+02    7.4288209617332214E+01    7.9020619547027318E+00
H    1.6241011962607635E+02    7.3455027219350640E+01    8.4582953245556496E+00
O    1.9201749225599579E+02    1.8179960698850476E+02   -3.2790072152046550E+00
H    1.9144443146354217E+02    1.8158773999180301E+02   -4.0425987108232535E+00
H    1.9191598237722161E+02    1.8276654810482594E+02   -3.0820163490284793E+00
O    1.6448759960259125E+02    8.7892866809602708E+01    4.7989335565461522E+00
H    1.6363813709272219E+02    8.7429044714866862E+01    5.0961386843472507E+00
H    1.6513303343051652E+02    8.8110850242205885E+01    5.5560624583318079E+00
O    1.6085136023676068E+02    1.8045558449003374E+02    1.1537602960179656E+00
H    1.6153925700479911E+02    1.8074090901520896E+02    1.8255493442383479E+00
H    1.6132756548331133E+02    1.7997880320661142E+02    4.6081823373867270E-01
O    3.0665488788059872E+02    1.9097984582010747E+02    1.0919409511615747E+00
H    3.0729301654427081E+02    1.9156440165523250E+02    6.1576004339502077E-01
H    3.0645848373625637E+02    1.9021987327851116E+02    5.3531549775020160E-01
O    1.2257881575824037E+02    1.7551824160416203E+02    1.1429085262685460E+01
H    1.2342524301307468E+02    1.7526034086736615E+02    1.1855965610063560E+01
H    1.2200273497818382E+02    1.7473811315328470E+02    1.1567234318779589E+01
O    8.6851352233248093E+01    1.9154875568227783E+02    7.9213120859112500E+00
H    8.6826116554384669E+01    1.9066088497544447E+02    7.4989254340199514E+00
H    8.7137694242825489E+01    1.9149150431215392E+02    8.8119854826222213E+00
O    1.7698462397520768E+02    8.6632688293761277E+01    6.2664108099708873E+00
H    1.7769698771155919E+02    8.7037907564324030E+01    6.7575182807102285E+00
H    1.7726556619369782E+02    8.6475706208185898E+01    5.3227279414777060E+00
O    2.0457892021363295E+02   -1.5100534504593638E+01    3.2834000969505044E+00
H    2.0559787781501348E+02   -1.5087314918076347E+01    3.0204660847748648E+00
H    2.0424462834271495E+02   -1.5766935986854131E+01    2.6614447667530219E+00
O    1.0824212944634682E+02    3.0688253236197147E+02    1.1606135708937064E+01
H    1.0900473942099197E+02    3.0696910466210329E+02    1.0992393739454011E+01
H    1.0769217629627347E+02    3.0769833093443805E+02    1.1417009025550644E+01
O    1.6357404824066154E+02    1.8371291967866404E+02    1.0487200607783535E+01
H    1.6283052266256314E+02    1.8403743754673243E+02    9.9019708266304338E+00
H    1.6320782191160930E+02    1.8284798579747857E+02    1.0872637137533014E+01
O    1.6043644984558878E+02    1.6739219533647696E+02    8.1601100862439697E+00
H    1.6011746851299637E+02    1.6650278797617926E+02    8.4277694257682683E+00
H    1.6124060136126434E+02    1.6717498502576470E+02    7.6017209311956053E+00
O    1.8292455803902953E+02    1.0331867044627462E+02    5.0615107129248171E+00
H    1.8288402641642051E+02    1.0254733988157876E+02    5.6816848924309129E+00
H    1.8279674243090091E+02    1.0306809583391448E+02    4.0978704149753602E+00
O    1.3801602658481104E+02    1.5443488574888167E+02   -3.3444093979299643E+00
H    1.3720703555654990E+02    1.5391767773157869E+02   -3.5904617654498936E+00