 # Version information for this restart file 
 # current date 2019-01-28 11:14:15.688
 # current working dir /scratch/snx3000/gtocci/gtocci/MEMBRANES/AIMD_US_IONS_GRA/potassium/aimd_us_pot/us_17
 # Program compiled at                             Thu Oct 11 21:49:41 CEST 2018
 # Program compiled on                                                  daint104
 # Program compiled for                                   CRAY_XC50-gfortran_gpu
 # Source code revision number                                     git:be74c20a5
 &GLOBAL
   PRINT_LEVEL  LOW
   PROJECT_NAME GRAS
   RUN_TYPE  MD
   WALLTIME 10200
 &END GLOBAL
 &MOTION
   &MD
     ENSEMBLE  NVT
     STEPS  100000
     TIMESTEP     9.9999999999999989E-01
     STEP_START_VAL  40424
     TIME_START_VAL     4.0423999999991196E+04
     ECONS_START_VAL    -8.3207059372266340E+03
     TEMPERATURE     3.0000000000000000E+02
     TEMP_KIND  T
     &BAROSTAT
       PRESSURE     1.0000000000000000E+00
       TIMECON     9.9999999999999986E+01
       VIRIAL  Z
     &END BAROSTAT
     &THERMOSTAT
       TYPE  NOSE
       REGION  GLOBAL
       &NOSE
         LENGTH  4
         TIMECON     9.9999999999999986E+01
         MTS  2
         &COORD
               7.3754835036165339E-02    2.4698565914507618E+00    1.8275083521461283E+01   -1.0230187722581325E+01
         &END COORD
         &VELOCITY
              -9.1693823808002139E-08    2.2857051597161790E-04    2.3959258502545078E-04   -8.6385501360695168E-05
         &END VELOCITY
         &MASS
               7.0145132684705392E+07    1.6237299232570693E+04    1.6237299232570693E+04    1.6237299232570693E+04
         &END MASS
         &FORCE
               7.3125300194201800E-10   -5.8473692338463082E-08   -6.2655330785734303E-09   -1.1054070509272104E-09
         &END FORCE
       &END NOSE
     &END THERMOSTAT
     &AVERAGES  T
       &RESTART_AVERAGES
         ITIMES_START  1
         AVECPU     4.6610003246348342E+01
         AVEHUGONIOT     0.0000000000000000E+00
         AVETEMP_BARO     0.0000000000000000E+00
         AVEPOT    -8.3232547799714757E+03
         AVEKIN     2.0516475540306773E+00
         AVETEMP     2.9993439073841336E+02
         AVEKIN_QM     0.0000000000000000E+00
         AVETEMP_QM     0.0000000000000000E+00
         AVEVOL     2.1331414786628116E+05
         AVECELL_A     4.8437460238125830E+01
         AVECELL_B     4.6608961231944569E+01
         AVECELL_C     9.4486306644279466E+01
         AVEALPHA     9.0000000000000057E+01
         AVEBETA     9.0000000000000057E+01
         AVEGAMMA     9.0000000000000057E+01
         AVE_ECONS    -1.6503554262826907E+00
         AVE_PRESS     0.0000000000000000E+00
         AVE_PXX     0.0000000000000000E+00
       &END RESTART_AVERAGES
     &END AVERAGES
     &PRINT
       &TEMP_KIND  SILENT
       &END TEMP_KIND
     &END PRINT
   &END MD
   &FREE_ENERGY
     &METADYN
       MIN_DISP    -1.0000000000000000E+00
       OLD_HILL_NUMBER  0
       OLD_HILL_STEP  0
       DO_HILLS  F
       STEP_START_VAL  40424
       NHILLS_START_VAL  0
       &METAVAR
         SCALE     1.0000000000000000E+00
         COLVAR  1
       &END METAVAR
       &PRINT
         &COLVAR  SILENT
           COMMON_ITERATION_LEVELS  3
           &EACH
             MD  1
           &END EACH
         &END COLVAR
       &END PRINT
     &END METADYN
   &END FREE_ENERGY
   &CONSTRAINT
     &COLLECTIVE
       COLVAR  1
       INTERMOLECULAR  T
       &RESTRAINT
         K     4.4625385281452931E-04
       &END RESTRAINT
     &END COLLECTIVE
     &COLVAR_RESTART
           1.6062672129527972E+01
     &END COLVAR_RESTART
   &END CONSTRAINT
   &PRINT
     &TRAJECTORY  SILENT
       &EACH
         MD  1
       &END EACH
     &END TRAJECTORY
     &VELOCITIES  SILENT
       &EACH
         MD  1
       &END EACH
     &END VELOCITIES
     &FORCES  SILENT
       UNIT eV*angstrom^-1
       &EACH
         MD  1
       &END EACH
     &END FORCES
     &RESTART  SILENT
       &EACH
         MD  1
       &END EACH
     &END RESTART
     &RESTART_HISTORY  SILENT
       &EACH
         MD  100
       &END EACH
     &END RESTART_HISTORY
   &END PRINT
 &END MOTION
 &FORCE_EVAL
   METHOD  QS
   &DFT
     BASIS_SET_FILE_NAME /users/gtocci/scratch_daint_3000/data_cp2k//BASIS_MOLOPT
     POTENTIAL_FILE_NAME /users/gtocci/scratch_daint_3000/data_cp2k//GTH_POTENTIALS
     WFN_RESTART_FILE_NAME ./GRAS-RESTART.wfn
     CHARGE  1
     &SCF
       MAX_SCF  10
       EPS_SCF     9.9999999999999995E-07
       SCF_GUESS  RESTART
       &OT  T
         MINIMIZER  DIIS
         PRECONDITIONER  FULL_KINETIC
       &END OT
       &OUTER_SCF  T
         EPS_SCF     9.9999999999999995E-07
         MAX_SCF  30
       &END OUTER_SCF
       &PRINT
         &RESTART  SILENT
           ADD_LAST  NUMERIC
           &EACH
             QS_SCF  50
           &END EACH
         &END RESTART
       &END PRINT
     &END SCF
     &QS
       MAP_CONSISTENT  T
       EXTRAPOLATION  ASPC
       EXTRAPOLATION_ORDER  4
     &END QS
     &MGRID
       NGRIDS  5
       CUTOFF     4.6000000000000000E+02
     &END MGRID
     &XC
       DENSITY_CUTOFF     1.0000000000000000E-10
       GRADIENT_CUTOFF     1.0000000000000000E-10
       TAU_CUTOFF     1.0000000000000000E-10
       &XC_GRID
         XC_DERIV  SPLINE2_SMOOTH
       &END XC_GRID
       &XC_FUNCTIONAL  NO_SHORTCUT
         &LIBXC  T
           FUNCTIONAL XC_GGA_X_OPTB88_VDW
         &END LIBXC
         &VWN  T
         &END VWN
       &END XC_FUNCTIONAL
       &VDW_POTENTIAL
         POTENTIAL_TYPE  NON_LOCAL
         &NON_LOCAL
           TYPE  DRSLL
           VERBOSE_OUTPUT  T
           KERNEL_FILE_NAME /users/gtocci/scratch_daint_3000/data_cp2k//vdW_kernel_table.dat
         &END NON_LOCAL
       &END VDW_POTENTIAL
     &END XC
     &REAL_TIME_PROPAGATION
       INITIAL_WFN  SCF_WFN
     &END REAL_TIME_PROPAGATION
     &PRINT
       &MULLIKEN  SILENT
         FILENAME =GRAS.mulliken
       &END MULLIKEN
     &END PRINT
   &END DFT
   &SUBSYS
     &CELL
       A     2.5632000000000001E+01    0.0000000000000000E+00    0.0000000000000000E+00
       B     0.0000000000000000E+00    2.4664400000000022E+01    0.0000000000000000E+00
       C     0.0000000000000000E+00    0.0000000000000000E+00    5.0000000000000028E+01
       MULTIPLE_UNIT_CELL  1 1 1
     &END CELL
     &COORD
C   -4.8983101208496151E+00   -2.1956134039571031E+00    7.0113524008379562E+00
C   -3.4583647368554025E+00   -2.2014095638358233E+00    6.9767786192747350E+00
C   -2.7512989349880916E+00   -9.3875003008769431E-01    7.0391630823898259E+00
C   -1.3307176372903287E+00   -9.4847756093343671E-01    7.1329518081602252E+00
C   -4.8968570983979429E+00    2.9112878362950112E-01    7.0503062854521854E+00
C   -3.4529472193756159E+00    2.9329494684578228E-01    7.0526739818950697E+00
C   -2.7281930425329306E+00    1.5226612837502191E+00    7.1208054895859494E+00
C   -1.2952092855929842E+00    1.5068853575879970E+00    7.2264093639146640E+00
C   -4.8179545381023194E+00    2.7855992696312994E+00    7.0116596803369156E+00
C   -3.3983403030773158E+00    2.7917599145162169E+00    7.0016830383403930E+00
C   -2.6958862906511358E+00    3.9814068616566010E+00    7.0325458860848507E+00
C   -1.2659331886733418E+00    4.0115650472853694E+00    7.1235220187235813E+00
C   -4.8818060658919711E+00    5.2364115968869198E+00    7.1232576718484708E+00
C   -3.4686002291960181E+00    5.2255565542451752E+00    7.1211258239083559E+00
C   -2.7292974086170108E+00    6.4392603117013216E+00    7.1065018896601702E+00
C   -1.3171356717744696E+00    6.5071895342333246E+00    7.0586129684107046E+00
C   -4.8980505276795832E+00    7.7036676649880134E+00    7.1219732895815220E+00
C   -3.4638720444950333E+00    7.6758908616604815E+00    7.0607857166410462E+00
C   -2.7492742145748044E+00   -3.4028798884163716E+00    6.9854977936234990E+00
C   -1.3269096319171330E+00   -3.4039647496485275E+00    7.0930640749664402E+00
C   -6.0897555185598484E-01   -2.1705937367174379E+00    7.2169133970932204E+00
C    8.0243778433187229E-01   -2.1615974320931577E+00    7.2747380892610067E+00
C    1.5300425508595767E+00   -9.4921738287261248E-01    7.2907958640841093E+00
C    2.9388295377154927E+00   -9.5337738351444623E-01    7.2580571030983538E+00
C   -6.2715995265649394E-01    2.7421725454077883E-01    7.2722846596670871E+00
C    7.9580760357690694E-01    2.7536368976439823E-01    7.3202006451095638E+00
C    1.5634455230797544E+00    1.5144782289111380E+00    7.3127547524115792E+00
C    2.9503262335186773E+00    1.4775915486605946E+00    7.2790686562446245E+00
C   -5.6998698336731124E-01    2.7623158046522862E+00    7.2465736031355403E+00
C    8.7104942360895821E-01    2.7666884508178886E+00    7.3366494741943837E+00
C    1.5457410110780387E+00    3.9737193273707647E+00    7.3252165355800507E+00
C    2.9779704662064521E+00    3.9806267114191654E+00    7.3405268651548488E+00
C   -5.7251982378320820E-01    5.2603400850791999E+00    7.1623325469983383E+00
C    8.4207272106287412E-01    5.2376978454033241E+00    7.2699395916041905E+00
C    1.5535066324265332E+00    6.4962149976420998E+00    7.1525665827671645E+00
C    2.9655972654406795E+00    6.4585091942868678E+00    7.0491525869533600E+00
C   -5.9762772249891771E-01    7.7077426145542125E+00    6.9370165241349859E+00
C    8.4453774199028819E-01    7.7100922992588954E+00    6.9788674182154455E+00
C    1.5524686707017481E+00   -3.3665919533388071E+00    7.2553508401954927E+00
C    2.9820616484384588E+00   -3.4130186329815020E+00    7.2190947101563649E+00
C    3.6800392780558830E+00   -2.1859840200905154E+00    7.2732538033174956E+00
C    5.0811836030782818E+00   -2.1555234986480740E+00    7.3814417607050906E+00
C    5.7887176016623068E+00   -8.9569760627385930E-01    7.4325424676499425E+00
C    7.2433713494727394E+00   -8.6188533787033805E-01    7.4597761672317802E+00
C    3.6548127940058346E+00    2.9084231592675430E-01    7.2555599471386119E+00
C    5.0697110872752038E+00    3.1771606922301593E-01    7.2650260453383995E+00
C    5.8204731466121986E+00    1.5302332127388585E+00    7.3100102354060121E+00
C    7.2306811987167547E+00    1.5746830830693788E+00    7.4815143239921849E+00
C    3.6987595561755162E+00    2.7263050121210450E+00    7.2733028172269485E+00
C    5.1119934801353102E+00    2.7626483350313067E+00    7.2033773138263948E+00
C    5.8172321449161570E+00    4.0122977407905429E+00    7.1786076882171450E+00
C    7.2319271456186813E+00    4.0241427002727477E+00    7.2617692360757466E+00
C    3.6797272844530089E+00    5.2482375673440558E+00    7.1537795175840078E+00
C    5.0879923402218141E+00    5.2539899158826806E+00    7.0318972830748834E+00
C    5.8158146755448827E+00    6.4588816894545005E+00    6.9829751205934212E+00
C    7.2426933695295102E+00    6.4559821716771113E+00    7.0095650140436430E+00
C    3.6601034559938403E+00    7.7074398586411785E+00    6.8663937927053054E+00
C    5.0830377831686526E+00    7.6938275622455103E+00    6.8473140352124098E+00
C    5.8049461245011491E+00   -3.3932282989908051E+00    7.3148648128031013E+00
C    7.1995277945423695E+00   -3.3764755814614720E+00    7.2098027806992571E+00
C   -4.8731271441594073E+00    1.0176569291385723E+01    7.1014163324181974E+00
C   -3.4635903680704918E+00    1.0162735077608829E+01    6.9024959514032380E+00
C   -2.7297536762670216E+00    1.1383207917958874E+01    6.9306767061337284E+00
C   -1.3394975237000080E+00    1.1388699279465339E+01    6.8494753884757911E+00
C   -4.8230600978267546E+00    1.2639308591212968E+01    7.0787025403754766E+00
C   -3.4120866940578485E+00    1.2615501723863916E+01    7.0567636408001686E+00
C   -2.6702316252378280E+00    1.3836725758175900E+01    7.0427333388337923E+00
C   -1.2753145615578778E+00    1.3825989014207822E+01    6.9667128108651193E+00
C   -4.8571251398404680E+00    1.5124030999638897E+01    7.0699373387793081E+00
C   -3.3999919206523983E+00    1.5090382019594763E+01    6.9910453633122147E+00
C   -2.6905709830653062E+00    1.6333372541109668E+01    6.9356907673930204E+00
C   -1.2725101016095670E+00    1.6302392047789187E+01    6.9418198432550762E+00
C   -4.8476673236029209E+00    1.7547449476687742E+01    6.9533334609027868E+00
C   -3.4338472620142202E+00    1.7589260642999971E+01    6.9709547618516234E+00
C   -2.6822985420372834E+00    1.8833247621030679E+01    7.0340435518857154E+00
C   -1.2650439160336964E+00    1.8793969577112524E+01    7.0062320116089296E+00
C   -4.8430842902647706E+00    1.9995763107437156E+01    6.9293715187354534E+00
C   -3.4465547223045987E+00    2.0036148555086367E+01    6.9593393636559782E+00
C   -2.7638800840693807E+00    8.9136520264062629E+00    6.8938887332154435E+00
C   -1.3085678367039308E+00    8.9486339872879697E+00    6.8302044439378786E+00
C   -6.0488224009873059E-01    1.0177703218954205E+01    6.8311933173117376E+00
C    8.2792311840137323E-01    1.0151049379870392E+01    6.9252606722367558E+00
C    1.5466433815230933E+00    1.1389520550574453E+01    6.9150942767795280E+00
C    2.9440161720055826E+00    1.1393826499402421E+01    6.7996354548829725E+00
C   -5.7449639653538920E-01    1.2592802318968870E+01    6.9623005804901705E+00
C    8.5197374196686770E-01    1.2626354751475434E+01    6.9730801308415735E+00
C    1.5775965549376398E+00    1.3866510979693977E+01    7.0088150048014564E+00
C    3.0024048314339473E+00    1.3863756893765231E+01    6.9028898390700810E+00
C   -5.6378309606666555E-01    1.5062942264364438E+01    6.9052185653511078E+00
C    8.3145552452520932E-01    1.5064295219159529E+01    7.0169189655595847E+00
C    1.5824436325313376E+00    1.6291472984285654E+01    7.0998685185634933E+00
C    2.9782855194718039E+00    1.6302846115690397E+01    7.0551901387276397E+00
C   -5.7051819995780040E-01    1.7552454572099382E+01    6.9958755123676770E+00
C    8.7323727504581128E-01    1.7568648983125414E+01    7.0862153370374115E+00
C    1.5908684601345877E+00    1.8790937597281935E+01    7.1715475241451845E+00
C    2.9990772667799663E+00    1.8784315764062569E+01    7.1624282663003367E+00
C   -6.0765694872142517E-01    2.0042785108069491E+01    7.1522017387350711E+00
C    8.4532297756787966E-01    2.0059772949467497E+01    7.2489014835656702E+00
C    1.5231764112674235E+00    8.9411315180625319E+00    6.9376759857628985E+00
C    2.9382853197079086E+00    8.9419252282588815E+00    6.8341589988819553E+00
C    3.6609815634867680E+00    1.0130901000245712E+01    6.7892101703486256E+00
C    5.1003472126440457E+00    1.0137350311167420E+01    6.6589051410230997E+00
C    5.8066682072016107E+00    1.1372975093958628E+01    6.7138748740457501E+00
C    7.2574377968334289E+00    1.1387355672777623E+01    6.8256540948295381E+00
C    3.6849652511922173E+00    1.2624491503515562E+01    6.7832053339058946E+00
C    5.1128029832022230E+00    1.2610558800063306E+01    6.7201753694046031E+00
C    5.7920577796502650E+00    1.3882574506950945E+01    6.8010703497498834E+00
C    7.1990025198979239E+00    1.3893069563058260E+01    6.9265321875888874E+00
C    3.7178810951928849E+00    1.5056670993909892E+01    6.9282151552796414E+00
C    5.1327170382993090E+00    1.5088133489419992E+01    6.8848365451613205E+00
C    5.8216717239147728E+00    1.6349174208675532E+01    7.0144622477574341E+00
C    7.2642674363948903E+00    1.6350658642172220E+01    6.9711042997459236E+00
C    3.6802552163873048E+00    1.7509006569404072E+01    7.0856478256245303E+00
C    5.1338726824750358E+00    1.7570840493476123E+01    7.0772025860073917E+00
C    5.8428030812931349E+00    1.8813370473875541E+01    7.1883926572444237E+00
C    7.2877542965975799E+00    1.8824273041010180E+01    7.1294833048045945E+00
C    3.6549845857178318E+00    2.0019242372836697E+01    7.2687427402830460E+00
C    5.1096259337365248E+00    2.0047750869274889E+01    7.3130195388457073E+00
C    5.7907631087472993E+00    8.9379243305114269E+00    6.7988743623181929E+00
C    7.2521445235220412E+00    8.8996085208632163E+00    6.8423835855652282E+00
C    7.8983541436239477E+00   -2.1232147392918135E+00    7.2909721924109094E+00
C    9.3445669515345813E+00   -2.1083395181712286E+00    7.2151328560478971E+00
C    1.0058464782052576E+01   -8.8351646841834164E-01    7.2658623155187296E+00
C    1.1497524260948262E+01   -9.0102766413843416E-01    7.2521606055469405E+00
C    7.9875358219610160E+00    3.4097481268322277E-01    7.4581173416330939E+00
C    9.3866436521562076E+00    3.3966923004189015E-01    7.3162725423522126E+00
C    1.0082178798664366E+01    1.5702870968863945E+00    7.2268350074817853E+00
C    1.1537740534180035E+01    1.5461559231360900E+00    7.1974967305944579E+00
C    7.9377399357027212E+00    2.7927969339186749E+00    7.3549612843370005E+00
C    9.3726454564318420E+00    2.7661629801579202E+00    7.2527812609116804E+00
C    1.0079986743159642E+01    3.9971452128333085E+00    7.1664842985320947E+00
C    1.1517512517111081E+01    3.9975320678342521E+00    7.3403393318835697E+00
C    7.9624475692901306E+00    5.2726520493123470E+00    7.1325805850421800E+00
C    9.3910390082855368E+00    5.2248693730546902E+00    7.1595091636810251E+00
C    1.0091262919172021E+01    6.4743675836639785E+00    7.1528620304113835E+00
C    1.1508283064726859E+01    6.4646646970267820E+00    7.3012977471240283E+00
C    7.9801577335703273E+00    7.7058120035259945E+00    6.9079187514084834E+00
C    9.4152597080286178E+00    7.6844206246448783E+00    6.9110318861243183E+00
C    1.0089542658498667E+01   -3.3523508014087917E+00    7.1461417357077330E+00
C    1.1520136165440189E+01   -3.3450369139321054E+00    7.1404395231205200E+00
C    1.2199768303358558E+01   -2.1268400877382696E+00    7.2311513026848697E+00
C    1.3652211934463153E+01   -2.0940910229552854E+00    7.1785445084432977E+00
C    1.4368758433859956E+01   -8.7402043862424983E-01    7.1864290186829711E+00
C    1.5803792343057246E+01   -9.0609943307566232E-01    7.1947566891116237E+00
C    1.2227366020403883E+01    3.1621734639297477E-01    7.1748730801252520E+00
C    1.3680379938538499E+01    3.3333999476394505E-01    7.1246033857399524E+00
C    1.4397676248176063E+01    1.5819132406801419E+00    7.1317338127032412E+00
C    1.5809244435635232E+01    1.5873751093194755E+00    7.2522138950391071E+00
C    1.2243450321027302E+01    2.7665660583868092E+00    7.2072300616135871E+00
C    1.3714128105776842E+01    2.8253507523647414E+00    7.2073868964740520E+00
C    1.4415551238045344E+01    4.0348481167415677E+00    7.3240627993773799E+00
C    1.5820910568255641E+01    4.0217360818460888E+00    7.2794519043458488E+00
C    1.2238020278608985E+01    5.2251195900679379E+00    7.4082364437975290E+00
C    1.3632071918836045E+01    5.2388731422744526E+00    7.4123865079889404E+00
C    1.4357446733871996E+01    6.4476057818261125E+00    7.3839356939557979E+00
C    1.5790159960460562E+01    6.4901658159682931E+00    7.2747976016488858E+00
C    1.2203924799859630E+01    7.6734145705734846E+00    7.1985869614598634E+00
C    1.3691681472725596E+01    7.6575069835146143E+00    7.2186357560233771E+00
C    1.4348010616443602E+01   -3.3444889815733547E+00    7.1158130756339162E+00
C    1.5789292196422256E+01   -3.3781985556594214E+00    7.1278881991888889E+00
C    1.6492681665841893E+01   -2.1262045070378792E+00    7.1653112648839681E+00
C    1.7919939037725506E+01   -2.1309036786640316E+00    6.9887675766961532E+00
C    1.8569141685242339E+01   -9.1868467514602747E-01    6.9341383630199260E+00
C    1.9995704269753197E+01   -9.0715745699530947E-01    6.9868013323960616E+00
C    1.6498704916849757E+01    3.4672702746497297E-01    7.1953024671449892E+00
C    1.7926783558955400E+01    3.6373695430120390E-01    7.0437307074097122E+00
C    1.8610851982734168E+01    1.5823349287898127E+00    7.0919391986263136E+00
C    2.0057321878601062E+01    1.5611433297933364E+00    7.0751070522068300E+00
C    1.6541285506883369E+01    2.8066267552594781E+00    7.3218809586032663E+00
C    1.7970407712779846E+01    2.8011372544786761E+00    7.3160699856258420E+00
C    1.8666201217467354E+01    4.0410630832917631E+00    7.3266748178638865E+00
C    2.0077424223479373E+01    3.9945987955177760E+00    7.2262325243132306E+00
C    1.6521643548164693E+01    5.2604875606871797E+00    7.3458007848550411E+00
C    1.7937586282988661E+01    5.3017156266600907E+00    7.3453190075374231E+00
C    1.8653614044208819E+01    6.5532913755732318E+00    7.3252435901405306E+00
C    2.0057215139190593E+01    6.4777139070466951E+00    7.2113922485851383E+00
C    1.6482764132377319E+01    7.7367885842008342E+00    7.2505283632837862E+00
C    1.7886772796864900E+01    7.7477203549306664E+00    7.2616289164963232E+00
C    1.8629743006767157E+01   -3.4247192529901045E+00    6.9912489966298876E+00
C    2.0058323313052714E+01   -3.4477781484107228E+00    6.9736703590636768E+00
C    7.9586922850642097E+00    1.0142649223561232E+01    6.8165667907484018E+00
C    9.3737093722780038E+00    1.0139524170653308E+01    6.9505545419813011E+00
C    1.0053019684562351E+01    1.1360276045397004E+01    6.9628246315871412E+00
C    1.1493657223149032E+01    1.1409218621816423E+01    7.0286135664601623E+00
C    7.9728359318199962E+00    1.2617436732461545E+01    6.8892799906443702E+00
C    9.3976849869007033E+00    1.2613021138138331E+01    6.9233616423462143E+00
C    1.0063454889472110E+01    1.3851252917650614E+01    6.9091379380799856E+00
C    1.1481022660113455E+01    1.3885107895558932E+01    7.0216312497563669E+00
C    7.9251619585673216E+00    1.5123839930518345E+01    6.9613033680934135E+00
C    9.3544023004006700E+00    1.5139606787638801E+01    6.9281467378594366E+00
C    1.0069867071525403E+01    1.6370550452618378E+01    6.8918197647597772E+00
C    1.1489130991526491E+01    1.6375420898521362E+01    6.9936850483947355E+00
C    7.9956683006373410E+00    1.7619434931080612E+01    7.0165395942362920E+00
C    9.3802925361041112E+00    1.7602038323872105E+01    6.9108467520276280E+00
C    1.0084774111506135E+01    1.8845763416546642E+01    6.9516363154296563E+00
C    1.1541693122601963E+01    1.8832411972843740E+01    7.0247028991173783E+00
C    7.9549857531840855E+00    2.0059698035731902E+01    7.0993935111288486E+00
C    9.3716484246253664E+00    2.0074663961391931E+01    7.0728243053939162E+00
C    1.0097745145504209E+01    8.9294624158928233E+00    6.9651689155655498E+00
C    1.1555988710757628E+01    8.9205225815813165E+00    6.9315517778495597E+00
C    1.2224311180343792E+01    1.0175668394541688E+01    6.9907789699374723E+00
C    1.3647651742200555E+01    1.0160602846929526E+01    7.0800691760921328E+00
C    1.4370102832112277E+01    1.1422858143102152E+01    7.0349836822243805E+00
C    1.5807308054833655E+01    1.1454534197980465E+01    7.1120950954150146E+00
C    1.2189380894295992E+01    1.2643121681567058E+01    7.0654495154442616E+00
C    1.3623610311039029E+01    1.2637551469106040E+01    7.0731664970341965E+00
C    1.4345050401390260E+01    1.3869647354777914E+01    7.0605948936233380E+00
C    1.5772555298419396E+01    1.3853968603777572E+01    7.1492841160428853E+00
C    1.2192714457339434E+01    1.5140527392435423E+01    7.1093053413834166E+00
C    1.3651609015622105E+01    1.5108301602460557E+01    7.2293496423980281E+00
C    1.4353175292723362E+01    1.6346566597302786E+01    7.2266738559194579E+00
C    1.5797740836708785E+01    1.6344058548974868E+01    7.1297182691437131E+00
C    1.2234305232957256E+01    1.7605838655204870E+01    6.9489907602982024E+00
C    1.3657165142409420E+01    1.7598486753414580E+01    7.0514686119709786E+00
C    1.4369848999672286E+01    1.8860735009498555E+01    6.9949538846424284E+00
C    1.5794625267427620E+01    1.8860851282727481E+01    7.0030132710239190E+00
C    1.2229293596121098E+01    2.0073540425039546E+01    7.0980608509028347E+00
C    1.3632286253018098E+01    2.0083053659092975E+01    7.0473907860655887E+00
C    1.4350756797153883E+01    8.9005431181683861E+00    7.1188422098046278E+00
C    1.5748331894236067E+01    8.9836394722405206E+00    7.1009102064993330E+00
C    1.6451567602172656E+01    1.0169000629850739E+01    7.0936448131401182E+00
C    1.7889775225875663E+01    1.0220678444910286E+01    7.1814801926246146E+00
C    1.8613049030592631E+01    1.1420885489366041E+01    7.1858683087390727E+00
C    2.0069984391111245E+01    1.1408743233880401E+01    7.1636521122801362E+00
C    1.6545360383936206E+01    1.2647289352815635E+01    7.1374630409974458E+00
C    1.7928246902700767E+01    1.2653884853971197E+01    7.1744242031418270E+00
C    1.8670464434255127E+01    1.3911469674955027E+01    7.1929679317412489E+00
C    2.0117793258095968E+01    1.3857819054104160E+01    7.1397418553207421E+00
C    1.6471100330283452E+01    1.5094203983782631E+01    7.1159130072597048E+00
C    1.7882547002457233E+01    1.5112453887155356E+01    7.0712665955663070E+00
C    1.8585524024247054E+01    1.6361066648326567E+01    6.9878936343764533E+00
C    2.0024356843981462E+01    1.6374125713924094E+01    6.9808707802004806E+00
C    1.6463893846316385E+01    1.7624141840151442E+01    7.0894433846546097E+00
C    1.7883568636984226E+01    1.7591531912433695E+01    7.0037177742374572E+00
C    1.8610453036393491E+01    1.8778723584053960E+01    6.9405935300021460E+00
C    2.0052305409566035E+01    1.8772075777627641E+01    6.8708460986762381E+00
C    1.6493816277094588E+01    2.0050989810944824E+01    7.0674308025250516E+00
C    1.7908199811290835E+01    2.0025939225898099E+01    7.0303797003859732E+00
C    1.8610073678330291E+01    8.9858649918925284E+00    7.1862968994821834E+00
C    2.0035953283717379E+01    8.9552623313001654E+00    7.1941559657413778E+00
O    6.1332312368361261E+02    2.5447221383331248E+02    1.2071828312762163E+01
H    6.1327830797508022E+02    2.5478681634776015E+02    1.3032333095505990E+01
H    6.1292558274659734E+02    2.5360818492605358E+02    1.2133065062316060E+01
O    5.6974780522499407E+02    2.1483819397691977E+02    1.0442881741832407E+01
H    5.6911385582159232E+02    2.1404517621642407E+02    1.0206842833984496E+01
H    5.7065457852513805E+02    2.1461291291806450E+02    1.0264983020273309E+01
O    5.8264523403231317E+02    2.4709698825774200E+02    2.0197041884021715E+01
H    5.8319706320930641E+02    2.4792683765201994E+02    2.0304846497707747E+01
H    5.8304783236251581E+02    2.4659521596991729E+02    1.9405490164795641E+01
O    5.7655636552470332E+02    1.1993685899710161E+02    1.2956749956958664E+01
H    5.7702088294140776E+02    1.2079813572271742E+02    1.2878077059323699E+01
H    5.7733616878416717E+02    1.1933021571458579E+02    1.3063040104842461E+01
O    5.5579423964616853E+02    2.8911507596703581E+02    2.4182991073772204E+01
H    5.5484874714705882E+02    2.8890100250197332E+02    2.3989160681584217E+01
H    5.5632297194884507E+02    2.8880755864381609E+02    2.3395269320078846E+01
O    5.3025734433619061E+02    1.4410999782504456E+02    1.3926526087843424E+01
H    5.3009157206834630E+02    1.4356160487643928E+02    1.4759722279071903E+01
H    5.2946631714650562E+02    1.4468750805694685E+02    1.3934638286190600E+01
O    6.4489089101924071E+02    2.3666102231631666E+02    1.3921681476375939E+01
H    6.4490403816999731E+02    2.3660752315648159E+02    1.4913193553577447E+01
H    6.4574890280253624E+02    2.3628981866974163E+02    1.3635385814158814E+01
O    5.8042244370836477E+02    1.1603171203699604E+02    1.0823952662661917E+01
H    5.7980619509197231E+02    1.1627453369185659E+02    1.0092702216724749E+01
H    5.8101926373483923E+02    1.1537341750155075E+02    1.0346750455707905E+01
O    4.9136461112760475E+02    2.3721218337566805E+02    1.0000038238927891E+01
H    4.9054052462399449E+02    2.3686526545966271E+02    1.0329246016904923E+01
H    4.9201622321471336E+02    2.3640550684448041E+02    9.8712384337711097E+00
O    6.2766721328993822E+02    2.8586703786098059E+02    1.0289201041926031E+01
H    6.2852482391365152E+02    2.8533082137334026E+02    1.0132822069370015E+01
H    6.2802664988376296E+02    2.8681417463402659E+02    1.0398012840776410E+01
O    6.2385337477303767E+02    3.0966271210811857E+02    2.3181835903675637E+01
H    6.2424051927856067E+02    3.1039094912119623E+02    2.2563094001625259E+01
H    6.2381543089312936E+02    3.1005788447023855E+02    2.4078272327644509E+01
O    4.5929898968222506E+02    2.7978388890293780E+02    2.3623219508430441E+01
H    4.5935557615209149E+02    2.8060807784532477E+02    2.3068805877260107E+01
H    4.5833593718788535E+02    2.7959365002866434E+02    2.3732155716911890E+01
O    5.4117579633554487E+02    1.6568983831905956E+02    1.1001414667816316E+01
H    5.4068104366836747E+02    1.6621855846366117E+02    1.0331384516052591E+01
H    5.4207198545261190E+02    1.6570525989640831E+02    1.0579881446196513E+01
O    5.5741574672869990E+02    2.5072312681807528E+01    9.8103232692065117E+00
H    5.5818779467814454E+02    2.5670955962293107E+01    1.0025306408885680E+01
H    5.5772462118880605E+02    2.4336805947243104E+01    9.2120612785144953E+00
O    5.0824210828266820E+02    4.2469187169296237E+02    1.0273725984800807E+01
H    5.0872534875172778E+02    4.2473238198715427E+02    1.1077148450807876E+01
H    5.0831010931209750E+02    4.2377301507069939E+02    9.9714092495470599E+00
O    6.1549016323788214E+02    2.4099077096482699E+02    1.2744338558051306E+01
H    6.1481986003782799E+02    2.4165931223442229E+02    1.2489584148602324E+01
H    6.1535372606924091E+02    2.4015932812579797E+02    1.2292906590711722E+01
O    5.4135897702698685E+02    2.6444311048911931E+02    1.7607292252137540E+01
H    5.4213170744139950E+02    2.6483650015052370E+02    1.7095621179035970E+01
H    5.4150812294353113E+02    2.6485789473978161E+02    1.8487707817562786E+01
O    5.8781941940903437E+02    1.9175361323978214E+02    2.5405603583816497E+01
H    5.8806982519784822E+02    1.9247481955787941E+02    2.4672011177008176E+01
H    5.8691833024405901E+02    1.9196651298976451E+02    2.5719519507838310E+01
O    5.8111729935685173E+02    2.8491715090715644E+02    2.3443781709766519E+01
H    5.8152031469590702E+02    2.8538351724873360E+02    2.4203254369203009E+01