 # Version information for this restart file 
 # current date 2020-04-18 16:25:03.624
 # current working dir /scratch/snx3000/gtocci/gtocci/MEMBRANES/AIMD_US_IONS_GRA/us_aimd_new/us_10
 # Program compiled at                              Fri Nov 22 15:19:42 CET 2019
 # Program compiled on                                                  daint102
 # Program compiled for                                   CRAY_XC50-gfortran_gpu
 # Source code revision number                                       git:a698b45
 &GLOBAL
   PRINT_LEVEL  LOW
   PROJECT_NAME GRAS
   RUN_TYPE  MD
   WALLTIME 86400
 &END GLOBAL
 &MOTION
   &MD
     ENSEMBLE  NVT
     STEPS  2000
     TIMESTEP     9.9999999999999989E-01
     STEP_START_VAL  80110
     TIME_START_VAL     8.0109999999930209E+04
     ECONS_START_VAL    -8.3040244497117274E+03
     TEMPERATURE     3.0000000000000000E+02
     TEMP_KIND  T
     &BAROSTAT
       PRESSURE     1.0000000000000000E+00
       TIMECON     9.9999999999999986E+01
       VIRIAL  Z
     &END BAROSTAT
     &THERMOSTAT
       TYPE  NOSE
       REGION  GLOBAL
       &NOSE
         LENGTH  4
         TIMECON     9.9999999999999986E+01
         MTS  2
         &COORD
               7.7998464471024348E-02   -1.3123294489406968E+01    1.6338200389163845E+01    1.5834952987184558E+01
         &END COORD
         &VELOCITY
               7.5448273968068277E-06   -3.5817945534247591E-05    1.3594260325812681E-04    3.3701397501157755E-04
         &END VELOCITY
         &MASS
               7.0145132684705392E+07    1.6237299232570693E+04    1.6237299232570693E+04    1.6237299232570693E+04
         &END MASS
         &FORCE
               1.4223722361211576E-09    1.8740348248355671E-07   -5.7227088627810744E-08   -4.0029622469508603E-08
         &END FORCE
       &END NOSE
     &END THERMOSTAT
     &AVERAGES  T
       &RESTART_AVERAGES
         ITIMES_START  1
         AVECPU     3.1501694356478421E+01
         AVEHUGONIOT     0.0000000000000000E+00
         AVETEMP_BARO     0.0000000000000000E+00
         AVEPOT    -8.3065778512564993E+03
         AVEKIN     2.0517487676453685E+00
         AVETEMP     2.9994918735578784E+02
         AVEKIN_QM     0.0000000000000000E+00
         AVETEMP_QM     0.0000000000000000E+00
         AVEVOL     2.1331414786626332E+05
         AVECELL_A     4.8437460238121709E+01
         AVECELL_B     4.6608961231948342E+01
         AVECELL_C     9.4486306644281314E+01
         AVEALPHA     9.0000000000000028E+01
         AVEBETA     9.0000000000000028E+01
         AVEGAMMA     9.0000000000000028E+01
         AVE_ECONS    -4.9358813451619771E-01
         AVE_PRESS     0.0000000000000000E+00
         AVE_PXX     0.0000000000000000E+00
       &END RESTART_AVERAGES
     &END AVERAGES
     &PRINT
       &TEMP_KIND  SILENT
       &END TEMP_KIND
     &END PRINT
   &END MD
   &FREE_ENERGY
     &METADYN
       MIN_DISP    -1.0000000000000000E+00
       OLD_HILL_NUMBER  0
       OLD_HILL_STEP  0
       DO_HILLS  F
       STEP_START_VAL  80110
       NHILLS_START_VAL  0
       &METAVAR
         SCALE     1.0000000000000000E+00
         COLVAR  1
       &END METAVAR
       &PRINT
         &COLVAR  SILENT
           COMMON_ITERATION_LEVELS  3
           &EACH
             MD  1
           &END EACH
         &END COLVAR
       &END PRINT
     &END METADYN
   &END FREE_ENERGY
   &CONSTRAINT
     &COLLECTIVE
       COLVAR  1
       INTERMOLECULAR  T
       &RESTRAINT
         K     4.4625385281452931E-04
       &END RESTRAINT
     &END COLLECTIVE
     &COLVAR_RESTART
           9.4486306644282170E+00
     &END COLVAR_RESTART
   &END CONSTRAINT
   &PRINT
     &TRAJECTORY  SILENT
       &EACH
         MD  1
       &END EACH
     &END TRAJECTORY
     &VELOCITIES  SILENT
       &EACH
         MD  1
       &END EACH
     &END VELOCITIES
     &FORCES  SILENT
       UNIT eV*angstrom^-1
       &EACH
         MD  1
       &END EACH
     &END FORCES
     &RESTART  SILENT
       &EACH
         MD  1
       &END EACH
     &END RESTART
     &RESTART_HISTORY  SILENT
       &EACH
         MD  100
       &END EACH
     &END RESTART_HISTORY
   &END PRINT
 &END MOTION
 &FORCE_EVAL
   METHOD  QS
   &DFT
     BASIS_SET_FILE_NAME /users/gtocci/scratch_daint_3000/data_cp2k//BASIS_MOLOPT
     POTENTIAL_FILE_NAME /users/gtocci/scratch_daint_3000/data_cp2k//GTH_POTENTIALS
     WFN_RESTART_FILE_NAME ./GRAS-RESTART.wfn
     CHARGE  -1
     &SCF
       MAX_SCF  10
       EPS_SCF     9.9999999999999995E-07
       SCF_GUESS  RESTART
       &OT  T
         MINIMIZER  DIIS
         PRECONDITIONER  FULL_KINETIC
       &END OT
       &OUTER_SCF  T
         EPS_SCF     9.9999999999999995E-07
         MAX_SCF  30
       &END OUTER_SCF
       &PRINT
         &RESTART  SILENT
           ADD_LAST  NUMERIC
           &EACH
             QS_SCF  50
           &END EACH
         &END RESTART
       &END PRINT
     &END SCF
     &QS
       MAP_CONSISTENT  T
       EXTRAPOLATION  ASPC
       EXTRAPOLATION_ORDER  4
     &END QS
     &MGRID
       NGRIDS  5
       CUTOFF     4.6000000000000000E+02
     &END MGRID
     &XC
       DENSITY_CUTOFF     1.0000000000000000E-10
       GRADIENT_CUTOFF     1.0000000000000000E-10
       TAU_CUTOFF     1.0000000000000000E-10
       &XC_GRID
         XC_DERIV  SPLINE2_SMOOTH
       &END XC_GRID
       &XC_FUNCTIONAL  NO_SHORTCUT
         &LIBXC  T
           FUNCTIONAL XC_GGA_X_OPTB88_VDW
         &END LIBXC
         &VWN  T
         &END VWN
       &END XC_FUNCTIONAL
       &VDW_POTENTIAL
         POTENTIAL_TYPE  NON_LOCAL
         &NON_LOCAL
           TYPE  DRSLL
           VERBOSE_OUTPUT  T
           KERNEL_FILE_NAME /users/gtocci/scratch_daint_3000/data_cp2k//vdW_kernel_table.dat
         &END NON_LOCAL
       &END VDW_POTENTIAL
     &END XC
     &REAL_TIME_PROPAGATION
       INITIAL_WFN  SCF_WFN
     &END REAL_TIME_PROPAGATION
     &PRINT
       &MULLIKEN  SILENT
         FILENAME =GRAS.mulliken
       &END MULLIKEN
     &END PRINT
   &END DFT
   &SUBSYS
     &CELL
       A     2.5632000000000001E+01    0.0000000000000000E+00    0.0000000000000000E+00
       B     0.0000000000000000E+00    2.4664400000000022E+01    0.0000000000000000E+00
       C     0.0000000000000000E+00    0.0000000000000000E+00    5.0000000000000028E+01
       MULTIPLE_UNIT_CELL  1 1 1
     &END CELL
     &COORD
C   -1.3818887114997048E+01    1.5045707660269031E+01   -1.0438583339576738E+01
C   -1.2394897406638210E+01    1.5103033212605308E+01   -1.0475304771682557E+01
C   -1.1683708271262553E+01    1.6356137312497914E+01   -1.0601275234758013E+01
C   -1.0276249577336040E+01    1.6369588521738329E+01   -1.0903072506594354E+01
C   -1.3835459958212319E+01    1.7541628441129355E+01   -1.0608603971567439E+01
C   -1.2382316352093572E+01    1.7560868049648267E+01   -1.0681434149036834E+01
C   -1.1728247253024238E+01    1.8865320683122963E+01   -1.0765697278585932E+01
C   -1.0282018928107709E+01    1.8845295303326843E+01   -1.0954920461370351E+01
C   -1.3815142477529477E+01    2.0098497967150848E+01   -1.0644541968221453E+01
C   -1.2384166330606037E+01    2.0140907813896547E+01   -1.0683267505990271E+01
C   -1.1675712981386420E+01    2.1338811373699130E+01   -1.0708547965356823E+01
C   -1.0258187220237552E+01    2.1324352426263662E+01   -1.0767788097891474E+01
C   -1.3868553190270411E+01    2.2563295272088446E+01   -1.0689868550852614E+01
C   -1.2429654812556782E+01    2.2585487212035734E+01   -1.0646841907631632E+01
C   -1.1681333150530085E+01    2.3783049432487495E+01   -1.0629947715015049E+01
C   -1.0249754377372412E+01    2.3745767854013021E+01   -1.0692235189389514E+01
C   -1.3824481494308642E+01    2.5043074631327777E+01   -1.0922138715982829E+01
C   -1.2406374017417965E+01    2.5025859976695543E+01   -1.0827444871014297E+01
C   -1.1702035130217942E+01    1.3878026585710058E+01   -1.0594065135402898E+01
C   -1.0286679546250541E+01    1.3914420342658021E+01   -1.0664934401761325E+01
C   -9.5575663681283149E+00    1.5136402939830422E+01   -1.0806895582326504E+01
C   -8.1378385206793542E+00    1.5083697971248077E+01   -1.1004020443561476E+01
C   -7.4915137839442734E+00    1.6350508240330036E+01   -1.1143290174252256E+01
C   -6.0393908616163703E+00    1.6326869586456155E+01   -1.1192479560099818E+01
C   -9.6073313759319667E+00    1.7627136641112905E+01   -1.1110745547541764E+01
C   -8.1582173115303203E+00    1.7591110511217170E+01   -1.1136898452354895E+01
C   -7.4246899572133556E+00    1.8846338958226060E+01   -1.1228231894766559E+01
C   -6.0127297223605316E+00    1.8774404042707715E+01   -1.1290047679709275E+01
C   -9.5224010362380973E+00    2.0070599713791122E+01   -1.0952041387867709E+01
C   -8.1526115466814222E+00    2.0036704409722546E+01   -1.1085227953871168E+01
C   -7.4131211245555972E+00    2.1255383622215465E+01   -1.1129926039918104E+01
C   -5.9927861182017423E+00    2.1262092164877579E+01   -1.1183261120601831E+01
C   -9.5371629335635824E+00    2.2545311651014739E+01   -1.0763618524472063E+01
C   -8.1068142039922453E+00    2.2491547472882772E+01   -1.0936748575853402E+01
C   -7.4099669375651196E+00    2.3719302086478617E+01   -1.1014295136411446E+01
C   -5.9935735961933583E+00    2.3720027316584524E+01   -1.1099040899028717E+01
C   -9.5686209852609956E+00    2.4977579114933491E+01   -1.0869486904530042E+01
C   -8.1672765193936545E+00    2.4977195895390881E+01   -1.0997634148178033E+01
C   -7.4930304267383123E+00    1.3868436168815840E+01   -1.1089410975007540E+01
C   -6.0562169200126572E+00    1.3854800032433237E+01   -1.1151297631177645E+01
C   -5.3214606536850333E+00    1.5081105120779103E+01   -1.1192909537611838E+01
C   -3.9088372606633102E+00    1.5113631611271584E+01   -1.1183581646743429E+01
C   -3.2063998384166923E+00    1.6324724683238166E+01   -1.1204137875280912E+01
C   -1.7251247152117748E+00    1.6313102620932931E+01   -1.1281486409755507E+01
C   -5.3197958958379639E+00    1.7544080988609839E+01   -1.1240343779024929E+01
C   -3.8755045127964203E+00    1.7534853399838354E+01   -1.1189259446409059E+01
C   -3.1634841290411515E+00    1.8763530669770841E+01   -1.1175561158787479E+01
C   -1.7688861865035641E+00    1.8725343301680301E+01   -1.1097182200664319E+01
C   -5.2766749092605911E+00    2.0004209917422930E+01   -1.1301516239704476E+01
C   -3.8399940731867894E+00    1.9994048691746976E+01   -1.1238967226645491E+01
C   -3.1492624428661240E+00    2.1230284333984173E+01   -1.1266468006262167E+01
C   -1.7296097429401647E+00    2.1206744235272311E+01   -1.1294376109521414E+01
C   -5.2679404794461826E+00    2.2482814362128192E+01   -1.1178646034990022E+01
C   -3.8833602291035243E+00    2.2474371538458549E+01   -1.1224369378702100E+01
C   -3.1963206936282949E+00    2.3700177340771518E+01   -1.1271943972365115E+01
C   -1.7434272456952158E+00    2.3723873952354094E+01   -1.1245986384594753E+01
C   -5.3084915315393566E+00    2.4972544988667597E+01   -1.1145149467756120E+01
C   -3.8990529032774552E+00    2.4953252756141481E+01   -1.1291844498940314E+01
C   -3.1975452130846636E+00    1.3876014948855250E+01   -1.1125856121100339E+01
C   -1.7533581587713523E+00    1.3886429918554352E+01   -1.1091101407376248E+01
C   -1.3848215708424490E+01    2.7506830540914105E+01   -1.1111290649860113E+01
C   -1.2408427716480501E+01    2.7489622211639801E+01   -1.1084107122420251E+01
C   -1.1662452780571295E+01    2.8708471652037574E+01   -1.1112412647129348E+01
C   -1.0254409077372035E+01    2.8653323809563364E+01   -1.1056153015866499E+01
C   -1.3852096990672967E+01    2.9891828323775293E+01   -1.0966298828717122E+01
C   -1.2402401159237103E+01    2.9907632066841462E+01   -1.1053732761547442E+01
C   -1.1731500797354633E+01    3.1121969364875831E+01   -1.0966100996366746E+01
C   -1.0279618059957976E+01    3.1163701017863659E+01   -1.0974279440524182E+01
C   -1.3903481484405122E+01    3.2354405930037395E+01   -1.0832969499572009E+01
C   -1.2460672218463944E+01    3.2402622178665659E+01   -1.0871886047451261E+01
C   -1.1731895104024536E+01    3.3638089949221062E+01   -1.0818078205206495E+01
C   -1.0322656795130630E+01    3.3658198213251232E+01   -1.0949435809338679E+01
C   -1.3918938888825737E+01    3.4770431558648838E+01   -1.0624870194334960E+01
C   -1.2481360852053978E+01    3.4817833137041355E+01   -1.0631485682051682E+01
C   -1.1772135187779091E+01    3.6092871328921298E+01   -1.0584442336832902E+01
C   -1.0327033254977302E+01    3.6091691053126830E+01   -1.0674549166582446E+01
C   -1.3905552058147885E+01    3.7303620570554472E+01   -1.0462813539183221E+01
C   -1.2418282419039654E+01    3.7321824675056504E+01   -1.0540269576836515E+01
C   -1.1747029255287616E+01    2.6260594712001982E+01   -1.0886238242678360E+01
C   -1.0309214728246967E+01    2.6196422373207575E+01   -1.0934596661756705E+01
C   -9.5859775627910100E+00    2.7410703666070670E+01   -1.1067638524928919E+01
C   -8.1778669174789282E+00    2.7467754053288719E+01   -1.1082407185620074E+01
C   -7.5002145153030400E+00    2.8714931302182904E+01   -1.1017825841485713E+01
C   -6.0695144904696283E+00    2.8697906848872254E+01   -1.1075282758477458E+01
C   -9.5591311841806910E+00    2.9902129812977712E+01   -1.1053631131199319E+01
C   -8.1562907549540533E+00    2.9933907683078580E+01   -1.1054813510646822E+01
C   -7.4281180386467156E+00    3.1143878787380988E+01   -1.1083276396042727E+01
C   -6.0132841335766578E+00    3.1159884358352496E+01   -1.1021627745080322E+01
C   -9.6115800367165676E+00    3.2415336726127059E+01   -1.0990747993572148E+01
C   -8.1623114247851554E+00    3.2402982107591662E+01   -1.1061434126147692E+01
C   -7.4525888646101635E+00    3.3617348768460687E+01   -1.0996787431642174E+01
C   -6.0438957012571768E+00    3.3596970717384664E+01   -1.0893490166609551E+01
C   -9.5985595122709935E+00    3.4882960913434403E+01   -1.0913802015020337E+01
C   -8.1701659009797467E+00    3.4869287316420085E+01   -1.0967075878751997E+01
C   -7.4928734285797569E+00    3.6083521894862386E+01   -1.0981144832030131E+01
C   -6.0605789113030220E+00    3.6073665639527555E+01   -1.1010413582884482E+01
C   -9.5973442174896917E+00    3.7344475005347000E+01   -1.0742203911893302E+01
C   -8.1914037332514464E+00    3.7320671713565957E+01   -1.0951424517997932E+01
C   -7.4696455566908089E+00    2.6229644491142508E+01   -1.1006335227804927E+01
C   -6.0503376647690184E+00    2.6201211823356235E+01   -1.1036429109898744E+01
C   -5.3205981958155144E+00    2.7420484047712176E+01   -1.1001945431160804E+01
C   -3.9560471390814413E+00    2.7429048965769972E+01   -1.1173215210084747E+01
C   -3.2119568293693197E+00    2.8654451781880763E+01   -1.1110919447853597E+01
C   -1.7929617264456987E+00    2.8679976492053370E+01   -1.1277770067167758E+01
C   -5.3589141708967043E+00    2.9914960512855078E+01   -1.1073943420666847E+01
C   -3.9068915907048387E+00    2.9906204721500952E+01   -1.1018760371714977E+01
C   -3.2033063584148809E+00    3.1122342573519639E+01   -1.0906250300717238E+01
C   -1.7756832385989589E+00    3.1131952511077095E+01   -1.1043823637618987E+01
C   -5.3042132790860830E+00    3.2366176747327138E+01   -1.0927531877874337E+01
C   -3.8694312745177610E+00    3.2382693046130790E+01   -1.0837297127148162E+01
C   -3.1911130098482876E+00    3.3619533042063168E+01   -1.0766852406833371E+01
C   -1.7828747561859102E+00    3.3608431429022140E+01   -1.0870242386239852E+01
C   -5.3373622127483795E+00    3.4839756518334340E+01   -1.0886128151654543E+01
C   -3.8890974856442808E+00    3.4851658383907861E+01   -1.0804582345512408E+01
C   -3.1746617224063565E+00    3.6126635980695880E+01   -1.0823197838951387E+01
C   -1.7501036576700497E+00    3.6088951881120543E+01   -1.0823779003269788E+01
C   -5.3154714329975912E+00    3.7298859994465772E+01   -1.1042486547507554E+01
C   -3.8805244554085565E+00    3.7332498326318770E+01   -1.1009593758272176E+01
C   -3.2000836303134768E+00    2.6204012266256150E+01   -1.1315019694736927E+01
C   -1.7579836721020417E+00    2.6208842913405874E+01   -1.1351794308988334E+01
C   -1.0413731573557325E+00    1.5131467119962508E+01   -1.1263015567529797E+01
C    3.9723773743105761E-01    1.5106882473718251E+01   -1.1180394880350043E+01
C    1.1433053984173596E+00    1.6310703888028439E+01   -1.1065062006147167E+01
C    2.5728513078966140E+00    1.6299253270670910E+01   -1.0940342134367619E+01
C   -1.0093625279115046E+00    1.7498139456900535E+01   -1.1153825887970671E+01
C    4.0562445617214926E-01    1.7527154330777503E+01   -1.1080190152469880E+01
C    1.1571282498324591E+00    1.8767081793825778E+01   -1.1028816215952444E+01
C    2.5977023856983261E+00    1.8764673595404247E+01   -1.1006134662700633E+01
C   -1.0608873043904234E+00    1.9929327786388392E+01   -1.1183896683700349E+01
C    3.8046839543787619E-01    1.9998977147218973E+01   -1.1113016198105264E+01
C    1.0973007764204310E+00    2.1211018129400269E+01   -1.1178448700643973E+01
C    2.5120088653413566E+00    2.1239288645329388E+01   -1.1200039862437846E+01
C   -1.0143205751045834E+00    2.2481816757807298E+01   -1.1296668678464895E+01
C    4.5608199132206539E-01    2.2453538014540023E+01   -1.1214983314381289E+01
C    1.1119339626869056E+00    2.3709119936601063E+01   -1.1257875219145722E+01
C    2.5318197645462863E+00    2.3688540562221391E+01   -1.1280724093902466E+01
C   -1.0767400931204658E+00    2.4973248664821533E+01   -1.1254598096409481E+01
C    3.9673654925618923E-01    2.4934263776775826E+01   -1.1308508763923856E+01
C    1.0720044664977113E+00    1.3839291795079568E+01   -1.1060869857665372E+01
C    2.5071981282667557E+00    1.3831311991190461E+01   -1.0918377082132960E+01
C    3.2702160669016038E+00    1.5065227803710398E+01   -1.0942481521234937E+01
C    4.6854499507439016E+00    1.5052816614573517E+01   -1.0884491313955152E+01
C    5.4632170916526013E+00    1.6314375405725137E+01   -1.0839342316377962E+01
C    6.8831259924306423E+00    1.6319694438679889E+01   -1.0823093445387938E+01
C    3.3165720017818079E+00    1.7536394643939712E+01   -1.0933199165708588E+01
C    4.7613640014303593E+00    1.7525121978736561E+01   -1.0861448912508093E+01
C    5.4328592610229718E+00    1.8784899049374463E+01   -1.0975684277908128E+01
C    6.8420849431501622E+00    1.8809536075543061E+01   -1.0938104660205585E+01
C    3.2729077087046217E+00    2.0047781073144844E+01   -1.1054680628304800E+01
C    4.7169862798397704E+00    2.0010941646867330E+01   -1.1056555322814686E+01
C    5.4169430778025962E+00    2.1304197623489692E+01   -1.1109542590969486E+01
C    6.8465288613942930E+00    2.1314210369839206E+01   -1.1070165749895731E+01
C    3.2625099937852191E+00    2.2460309476217411E+01   -1.1347915153181319E+01
C    4.6749949953846439E+00    2.2479274865240935E+01   -1.1184517255581135E+01
C    5.3575707470860605E+00    2.3739139667871378E+01   -1.1200357102893843E+01
C    6.7774200970085872E+00    2.3803464855739055E+01   -1.1095199483802842E+01
C    3.2559474124240251E+00    2.4999943998888192E+01   -1.1222825457742971E+01
C    4.6737812382657431E+00    2.4980806546595165E+01   -1.1132931736077465E+01
C    5.3850850924959053E+00    1.3830498041126685E+01   -1.0885843105057585E+01
C    6.8504986433575326E+00    1.3866905267817545E+01   -1.0806557078064307E+01
C    7.5292703973588342E+00    1.5067523264776824E+01   -1.0699128285727184E+01
C    8.9646670422028922E+00    1.5080202521442541E+01   -1.0521289170593308E+01
C    9.6675422855103097E+00    1.6304664516078567E+01   -1.0600972344067854E+01
C    1.1083467677410686E+01    1.6307385952581285E+01   -1.0484317370678189E+01
C    7.5552574296558523E+00    1.7573638818777113E+01   -1.0887645554400434E+01
C    8.9790814539351480E+00    1.7567820095804755E+01   -1.0831150466069392E+01
C    9.6616672278235871E+00    1.8809678745170469E+01   -1.0857738881563701E+01
C    1.1114863500452477E+01    1.8800964547555996E+01   -1.0716492448547520E+01
C    7.5328875254024030E+00    2.0036037390910128E+01   -1.1015115879063309E+01
C    8.9353075800996482E+00    2.0064367015817567E+01   -1.0888669323805114E+01
C    9.6491673506513767E+00    2.1297907527734317E+01   -1.0860649958334868E+01
C    1.1066186298670397E+01    2.1300038421561300E+01   -1.0750635160983851E+01
C    7.5814724715694277E+00    2.2598697038932933E+01   -1.0975860193461470E+01
C    8.9922930143074034E+00    2.2567073939758675E+01   -1.0931482149144109E+01
C    9.6569987347855442E+00    2.3817423073791105E+01   -1.1015308883159982E+01
C    1.1071964541621105E+01    2.3822140452449641E+01   -1.0841039350941164E+01
C    7.4750212520858552E+00    2.5013626344524937E+01   -1.1126795097777968E+01
C    8.9020340822427499E+00    2.4999540794106814E+01   -1.1088579077811447E+01
C    9.6276506326503615E+00    1.3882651335435712E+01   -1.0387895726759867E+01
C    1.1021739481622832E+01    1.3855734200344289E+01   -1.0410260335186441E+01
C   -1.0366069919745577E+00    2.7438990519543662E+01   -1.1340751653579760E+01
C    3.5783039532670408E-01    2.7401008885312155E+01   -1.1204958860083366E+01
C    1.0950133752927793E+00    2.8649310283715824E+01   -1.1148636171862982E+01
C    2.5373915892452845E+00    2.8674225565732627E+01   -1.1108430918996381E+01
C   -1.0654873055507821E+00    2.9895790981630714E+01   -1.1155891143164077E+01
C    3.4526550780145643E-01    2.9897449139677235E+01   -1.1144698896454567E+01
C    1.0527007078353547E+00    3.1160364400360429E+01   -1.1119998410211572E+01
C    2.4865719651157150E+00    3.1126414952254532E+01   -1.1135635812977913E+01
C   -1.0934257262829727E+00    3.2398728232700634E+01   -1.0959356453565938E+01
C    3.1974591410983599E-01    3.2357490027939157E+01   -1.1018177445692992E+01
C    1.0839259577335840E+00    3.3565234542371087E+01   -1.0982275597140919E+01
C    2.4901247091507721E+00    3.3552538261689342E+01   -1.1070505836981781E+01
C   -1.0932916380005542E+00    3.4836423802138654E+01   -1.0883599537939689E+01
C    3.4622594914689336E-01    3.4762421968671731E+01   -1.0917330530987414E+01
C    1.0467334199406597E+00    3.6026315391907133E+01   -1.0974458856336048E+01
C    2.4925168036691447E+00    3.6072968970958520E+01   -1.0920089590970404E+01
C   -1.0485775618934909E+00    3.7330530252829121E+01   -1.0969079066355913E+01
C    3.4483724306171942E-01    3.7227340015366167E+01   -1.1021115375212128E+01
C    1.0819412946943623E+00    2.6191943388239881E+01   -1.1213407423756207E+01
C    2.5171554836633225E+00    2.6247371152653514E+01   -1.1160025579917093E+01
C    3.2564283581559308E+00    2.7450959523229962E+01   -1.1056690966208974E+01
C    4.6988776445955249E+00    2.7445055821077517E+01   -1.1077595353836875E+01
C    5.3727115361294011E+00    2.8703175065311463E+01   -1.0953125424537639E+01
C    6.7810698858034613E+00    2.8675134493124823E+01   -1.0936404727605151E+01
C    3.2221055870140214E+00    2.9904125904295618E+01   -1.1078958978943954E+01
C    4.6581500475114641E+00    2.9928714156573008E+01   -1.0980443912782547E+01
C    5.3450145908456621E+00    3.1128068564374285E+01   -1.0996676925616567E+01
C    6.7759323888860479E+00    3.1078516695201991E+01   -1.0913930650591974E+01
C    3.2457047044427414E+00    3.2331180395448207E+01   -1.1110936904444388E+01
C    4.6464324179621297E+00    3.2359603892167250E+01   -1.1063733019184991E+01
C    5.3796150048449594E+00    3.3564248237691466E+01   -1.0945266066246102E+01
C    6.8092823232342736E+00    3.3550617473159910E+01   -1.0845706366568322E+01
C    3.2101769029490339E+00    3.4829226662408594E+01   -1.0973645034648687E+01
C    4.6243684509443153E+00    3.4754894761939710E+01   -1.0871561782384317E+01
C    5.3453865652062946E+00    3.5993152095543898E+01   -1.0827798112473396E+01
C    6.7853655736282752E+00    3.6033395582550348E+01   -1.0805226840671930E+01
C    3.2365661761670972E+00    3.7309573620280922E+01   -1.0863267002237727E+01
C    4.7282144680062457E+00    3.7262082434537128E+01   -1.0829062763420797E+01
C    5.3328221272833547E+00    2.6193553497330782E+01   -1.1113749059592847E+01
C    6.7641202409637078E+00    2.6222959462412348E+01   -1.1158069393041258E+01
C    7.4637431652436641E+00    2.7445398352689665E+01   -1.1093915806813564E+01
C    8.8840449536307684E+00    2.7434967266697317E+01   -1.1131414993177845E+01
C    9.6177360544405470E+00    2.8677167078751946E+01   -1.1080249239582590E+01
C    1.1065731705896937E+01    2.8673971535391242E+01   -1.1094407140187110E+01
C    7.4980439152164937E+00    2.9894910332467024E+01   -1.0903557356436723E+01
C    8.9364563563510959E+00    2.9876846449426274E+01   -1.0949332421925126E+01
C    9.6694164868056873E+00    3.1120753119531106E+01   -1.0925925033291502E+01
C    1.1058028523378132E+01    3.1126154950726779E+01   -1.0942427269033541E+01
C    7.4902362195577652E+00    3.2321688288331842E+01   -1.0916895919776479E+01
C    8.9062934232417508E+00    3.2320747312897396E+01   -1.0863694986005278E+01
C    9.5995291390365676E+00    3.3577049497863285E+01   -1.0765397440542394E+01
C    1.1006648949561608E+01    3.3548569211403226E+01   -1.0760863003736516E+01
C    7.4616952497483231E+00    3.4806269732991034E+01   -1.0762358622717725E+01
C    8.8809734512503180E+00    3.4810828465127699E+01   -1.0762738410065433E+01
C    9.5948638402294968E+00    3.6025282992291885E+01   -1.0563717710890844E+01
C    1.1012811546967365E+01    3.6024192452883504E+01   -1.0508393602137565E+01
C    7.5063545339997537E+00    3.7300092972474175E+01   -1.0711897704337369E+01
C    8.9298454564590042E+00    3.7285731917780929E+01   -1.0523098185530721E+01
C    9.6085325568513618E+00    2.6229589910723590E+01   -1.1127352647925656E+01
C    1.1046305666676876E+01    2.6256265620652727E+01   -1.1125815509344665E+01
O    2.7222917908466928E+02    1.3825989598304835E+01   -4.6006527230826331E+00
H    2.7285828819499926E+02    1.3732911353143447E+01   -3.8030299181218226E+00
H    2.7286743120332363E+02    1.3943855372968077E+01   -5.2932501512838872E+00
O    2.2711132404618056E+02    3.9783728853140936E+01    7.6645998824496466E+00
H    2.2692053930853140E+02    4.0752726820878586E+01    7.6524407604468365E+00
H    2.2793757980136886E+02    3.9750394833809722E+01    7.0492992491489499E+00
O    2.0640933008249337E+02    1.3033493770910047E+02   -6.1493217296240514E+00
H    2.0563615018865102E+02    1.3004120874411660E+02   -6.7143690751924936E+00
H    2.0722308289619951E+02    1.3003510787647301E+02   -6.7110464613037868E+00
O    2.9330743994216482E+02   -1.8197820026664889E+01   -3.4841827283760964E+00
H    2.9353106619874382E+02   -1.9053250511199408E+01   -3.0190390558116631E+00
H    2.9312015395782089E+02   -1.7449637300402291E+01   -2.9053651629730290E+00
O    2.2481479914959795E+02    1.4459434116284558E+02   -4.9654302445999283E+00
H    2.2401377374020134E+02    1.4410853516517437E+02   -4.5412509256201288E+00
H    2.2562192121857026E+02    1.4399234926667555E+02   -5.1164217643354402E+00
O    1.8004006643255883E+02    2.8188301395719570E+01   -2.3746077487383457E+00
H    1.7959598460761416E+02    2.8244079667993951E+01   -1.4590615923901928E+00
H    1.7929863309461550E+02    2.8547291702568380E+01   -2.9645823041611585E+00
O    2.2703821744261097E+02    7.3651558762503115E+01    6.6107882346409452E-01
H    2.2778794080569705E+02    7.4135694100947845E+01    1.1011608345177493E+00
H    2.2710391848505964E+02    7.2785080066517324E+01    1.1480793692715319E+00
O    2.2469765990986218E+02   -3.4705887490247584E+01   -8.2841940902051228E+00
H    2.2497996285823163E+02   -3.5617961864177722E+01   -8.3970246698149538E+00
H    2.2535307172706044E+02   -3.4148349061047497E+01   -8.7704289959128960E+00
O    1.9408258013566765E+02    8.5188985760491519E+01   -7.7734290496749547E-01
H    1.9484176077260889E+02    8.4619646534735764E+01   -1.1749659779030970E+00
H    1.9336727798889311E+02    8.4597681925401091E+01   -5.9897133899711896E-01
O    3.3903394160448613E+02    7.7953214007642643E+01    2.2503095386241281E+00
H    3.3825793560472010E+02    7.8523067039526808E+01    2.1540332855279272E+00
H    3.3990572161021004E+02    7.8542178709651182E+01    2.0273241903534909E+00
O    2.7390670907965608E+02    7.6554965630689068E+01   -6.1253295549893283E-01
H    2.7408553188626786E+02    7.7342088656859246E+01   -1.2372453391328913E+00
H    2.7475086685309134E+02    7.6050735472150407E+01   -7.3924734685723892E-01
O    1.8224951102375439E+02    2.3097840488648462E+01   -2.7572414249565389E+00
H    1.8279429478757524E+02    2.2288162395538954E+01   -2.6044791725002083E+00
H    1.8297735803520959E+02    2.3820243900436488E+01   -2.5050800322995705E+00
O    2.3233605882661124E+02   -2.4133878234758139E+01    6.8679884498157566E+00
H    2.3161223259083033E+02   -2.4722978875532750E+01    7.1696585551297316E+00
H    2.3184846448028699E+02   -2.3545683627627408E+01    6.1987903972496508E+00
O    2.7265834033404644E+02   -7.1669593477093940E+01    6.0703503327498414E+00
H    2.7264967866300833E+02   -7.2067769791170818E+01    5.1759201720107972E+00
H    2.7293326240827378E+02   -7.0742952640282965E+01    5.9181959455302913E+00
O    1.7898605267969822E+02    1.9709166677463654E+02   -7.3816000486769742E-02
H    1.7826139333483275E+02    1.9663360839251533E+02   -5.1120694780421805E-01
H    1.7956185079885950E+02    1.9737668771914309E+02   -7.7554526623449893E-01
O    2.5145390333957340E+02    5.7548658419437167E+01    7.1354614204584736E+00
H    2.5207422870251349E+02    5.8106794627735518E+01    6.5982169745690689E+00
H    2.5101665421894430E+02    5.6997031364196538E+01    6.4160584219059862E+00
O    1.3243511232618690E+02    1.2943040561947799E+02    1.9122317446496804E+00
H    1.3304948526107546E+02    1.3005881180425428E+02    2.4197895889301901E+00
H    1.3149741016874657E+02    1.2971008150616970E+02    2.2593103944311221E+00
O    2.2452603148059669E+02    5.4441760588877244E+01   -7.9147664596329790E+00
H    2.2541645161452891E+02    5.4741867891579155E+01   -8.1755724592353314E+00
H    2.2454559489998221E+02    5.3449954842530005E+01   -7.9446689998230466E+00
O    1.4149254719700011E+02    8.4361177306005530E+01    5.7354132369935087E+00
H    1.4241805592839196E+02    8.4448369451953070E+01    5.3793667723636487E+00