 # Version information for this restart file 
 # current date 2020-04-17 02:54:01.760
 # current working dir /scratch/snx3000/gtocci/gtocci/MEMBRANES/AIMD_US_IONS_GRA/us_aimd_new/us_13
 # Program compiled at                              Fri Nov 22 15:19:42 CET 2019
 # Program compiled on                                                  daint102
 # Program compiled for                                   CRAY_XC50-gfortran_gpu
 # Source code revision number                                       git:a698b45
 &GLOBAL
   PRINT_LEVEL  LOW
   PROJECT_NAME GRAS
   RUN_TYPE  MD
   WALLTIME 86400
 &END GLOBAL
 &MOTION
   &MD
     ENSEMBLE  NVT
     STEPS  2000
     TIMESTEP     9.9999999999999989E-01
     STEP_START_VAL  76421
     TIME_START_VAL     7.6420999999935884E+04
     ECONS_START_VAL    -8.3018594297938052E+03
     TEMPERATURE     3.0000000000000000E+02
     TEMP_KIND  T
     &BAROSTAT
       PRESSURE     1.0000000000000000E+00
       TIMECON     9.9999999999999986E+01
       VIRIAL  Z
     &END BAROSTAT
     &THERMOSTAT
       TYPE  NOSE
       REGION  GLOBAL
       &NOSE
         LENGTH  4
         TIMECON     9.9999999999999986E+01
         MTS  2
         &COORD
               2.3142919984029758E-02    3.5992528269485247E+00   -8.0876446803748046E+00   -4.1756989089816026E+00
         &END COORD
         &VELOCITY
              -2.3155664212786686E-07    4.4894988797994500E-05   -1.1036110292128717E-04   -1.9405078896498200E-04
         &END VELOCITY
         &MASS
               7.0145132684705392E+07    1.6237299232570693E+04    1.6237299232570693E+04    1.6237299232570693E+04
         &END MASS
         &FORCE
               1.7355115621495586E-10   -5.8278382022926605E-08   -5.6494453830933020E-08   -4.6330440812102129E-08
         &END FORCE
       &END NOSE
     &END THERMOSTAT
     &AVERAGES  T
       &RESTART_AVERAGES
         ITIMES_START  1
         AVECPU     3.1050616943718921E+01
         AVEHUGONIOT     0.0000000000000000E+00
         AVETEMP_BARO     0.0000000000000000E+00
         AVEPOT    -8.3067375542763930E+03
         AVEKIN     2.0502074186173203E+00
         AVETEMP     2.9971199073985429E+02
         AVEKIN_QM     0.0000000000000000E+00
         AVETEMP_QM     0.0000000000000000E+00
         AVEVOL     2.1331414786626332E+05
         AVECELL_A     4.8437460238121709E+01
         AVECELL_B     4.6608961231948342E+01
         AVECELL_C     9.4486306644281314E+01
         AVEALPHA     9.0000000000000028E+01
         AVEBETA     9.0000000000000028E+01
         AVEGAMMA     9.0000000000000028E+01
         AVE_ECONS    -5.6908271585591058E+02
         AVE_PRESS     0.0000000000000000E+00
         AVE_PXX     0.0000000000000000E+00
       &END RESTART_AVERAGES
     &END AVERAGES
     &PRINT
       &TEMP_KIND  SILENT
       &END TEMP_KIND
     &END PRINT
   &END MD
   &FREE_ENERGY
     &METADYN
       MIN_DISP    -1.0000000000000000E+00
       OLD_HILL_NUMBER  0
       OLD_HILL_STEP  0
       DO_HILLS  F
       STEP_START_VAL  76421
       NHILLS_START_VAL  0
       &METAVAR
         SCALE     1.0000000000000000E+00
         COLVAR  1
       &END METAVAR
       &PRINT
         &COLVAR  SILENT
           COMMON_ITERATION_LEVELS  3
           &EACH
             MD  1
           &END EACH
         &END COLVAR
       &END PRINT
     &END METADYN
   &END FREE_ENERGY
   &CONSTRAINT
     &COLLECTIVE
       COLVAR  1
       INTERMOLECULAR  T
       &RESTRAINT
         K     4.4625385281452931E-04
       &END RESTRAINT
     &END COLLECTIVE
     &COLVAR_RESTART
           1.2283219863756681E+01
     &END COLVAR_RESTART
   &END CONSTRAINT
   &PRINT
     &TRAJECTORY  SILENT
       &EACH
         MD  1
       &END EACH
     &END TRAJECTORY
     &VELOCITIES  SILENT
       &EACH
         MD  1
       &END EACH
     &END VELOCITIES
     &FORCES  SILENT
       UNIT eV*angstrom^-1
       &EACH
         MD  1
       &END EACH
     &END FORCES
     &RESTART  SILENT
       &EACH
         MD  1
       &END EACH
     &END RESTART
     &RESTART_HISTORY  SILENT
       &EACH
         MD  100
       &END EACH
     &END RESTART_HISTORY
   &END PRINT
 &END MOTION
 &FORCE_EVAL
   METHOD  QS
   &DFT
     BASIS_SET_FILE_NAME /users/gtocci/scratch_daint_3000/data_cp2k//BASIS_MOLOPT
     POTENTIAL_FILE_NAME /users/gtocci/scratch_daint_3000/data_cp2k//GTH_POTENTIALS
     WFN_RESTART_FILE_NAME ./GRAS-RESTART.wfn
     CHARGE  -1
     &SCF
       MAX_SCF  10
       EPS_SCF     9.9999999999999995E-07
       SCF_GUESS  RESTART
       &OT  T
         MINIMIZER  DIIS
         PRECONDITIONER  FULL_KINETIC
       &END OT
       &OUTER_SCF  T
         EPS_SCF     9.9999999999999995E-07
         MAX_SCF  30
       &END OUTER_SCF
       &PRINT
         &RESTART  SILENT
           ADD_LAST  NUMERIC
           &EACH
             QS_SCF  50
           &END EACH
         &END RESTART
       &END PRINT
     &END SCF
     &QS
       MAP_CONSISTENT  T
       EXTRAPOLATION  ASPC
       EXTRAPOLATION_ORDER  4
     &END QS
     &MGRID
       NGRIDS  5
       CUTOFF     4.6000000000000000E+02
     &END MGRID
     &XC
       DENSITY_CUTOFF     1.0000000000000000E-10
       GRADIENT_CUTOFF     1.0000000000000000E-10
       TAU_CUTOFF     1.0000000000000000E-10
       &XC_GRID
         XC_DERIV  SPLINE2_SMOOTH
       &END XC_GRID
       &XC_FUNCTIONAL  NO_SHORTCUT
         &LIBXC  T
           FUNCTIONAL XC_GGA_X_OPTB88_VDW
         &END LIBXC
         &VWN  T
         &END VWN
       &END XC_FUNCTIONAL
       &VDW_POTENTIAL
         POTENTIAL_TYPE  NON_LOCAL
         &NON_LOCAL
           TYPE  DRSLL
           VERBOSE_OUTPUT  T
           KERNEL_FILE_NAME /users/gtocci/scratch_daint_3000/data_cp2k//vdW_kernel_table.dat
         &END NON_LOCAL
       &END VDW_POTENTIAL
     &END XC
     &REAL_TIME_PROPAGATION
       INITIAL_WFN  SCF_WFN
     &END REAL_TIME_PROPAGATION
     &PRINT
       &MULLIKEN  SILENT
         FILENAME =GRAS.mulliken
       &END MULLIKEN
     &END PRINT
   &END DFT
   &SUBSYS
     &CELL
       A     2.5632000000000001E+01    0.0000000000000000E+00    0.0000000000000000E+00
       B     0.0000000000000000E+00    2.4664400000000022E+01    0.0000000000000000E+00
       C     0.0000000000000000E+00    0.0000000000000000E+00    5.0000000000000028E+01
       MULTIPLE_UNIT_CELL  1 1 1
     &END CELL
     &COORD
C   -9.2375578292873839E-01    8.2842962522981640E+00   -3.4516020757147730E+00
C    5.2601699249187661E-01    8.3210324021915163E+00   -3.5155477401115940E+00
C    1.2160005882666582E+00    9.5392903788451928E+00   -3.5221059447176994E+00
C    2.6461300249865247E+00    9.5272394234290996E+00   -3.6524602560419752E+00
C   -8.7836918662321872E-01    1.0763815368463629E+01   -3.4443701076389028E+00
C    5.0772859304699669E-01    1.0788273893692839E+01   -3.5025187299023917E+00
C    1.1798198007024787E+00    1.1997855093208887E+01   -3.5586483668457789E+00
C    2.6281345182918545E+00    1.1964254682566857E+01   -3.6175634063079323E+00
C   -8.9817185395729537E-01    1.3244880177424522E+01   -3.4613930920109275E+00
C    5.0463966080518330E-01    1.3271766361265492E+01   -3.5766504565676391E+00
C    1.2182034612128998E+00    1.4505007779980160E+01   -3.6611979490731104E+00
C    2.6247818447586959E+00    1.4477023153691039E+01   -3.6919029735467088E+00
C   -9.3876054371284745E-01    1.5736943355833271E+01   -3.5208542162907226E+00
C    5.0432719163468853E-01    1.5753717559506569E+01   -3.6251539417967997E+00
C    1.2401144253315954E+00    1.6951376791302611E+01   -3.7727594225832912E+00
C    2.6468686382556337E+00    1.6929468421126039E+01   -3.8185182892585838E+00
C   -9.4171139371918278E-01    1.8162996836074360E+01   -3.6618304398547292E+00
C    5.1595091008616345E-01    1.8190351764230524E+01   -3.8599686010002778E+00
C    1.2268857883009605E+00    7.0670030485150335E+00   -3.6710010504453519E+00
C    2.6357173325820846E+00    7.0379336406362354E+00   -3.7807790227563158E+00
C    3.3781566936402290E+00    8.2860823690640473E+00   -3.7862683788547202E+00
C    4.8272248454142037E+00    8.3336067705439447E+00   -3.7835021117809373E+00
C    5.4883197490155062E+00    9.5765275005100747E+00   -3.8278646564410836E+00
C    6.9175698116030251E+00    9.6036182333740463E+00   -3.8405481750062940E+00
C    3.3576213047476351E+00    1.0753740911628219E+01   -3.6801186300695927E+00
C    4.7648883372280570E+00    1.0795537616583918E+01   -3.7413628638428627E+00
C    5.4270583819155069E+00    1.2064344873147737E+01   -3.8964249903000590E+00
C    6.8311684735861604E+00    1.2068677082035913E+01   -3.7127682143875620E+00
C    3.3265214997630448E+00    1.3225953412086964E+01   -3.7384227154711298E+00
C    4.7331927077128686E+00    1.3272946555078994E+01   -3.8025291072618481E+00
C    5.4231093949739373E+00    1.4519741160781329E+01   -3.8543499628652977E+00
C    6.8993664974502042E+00    1.4488896275144761E+01   -3.8605066535735486E+00
C    3.3261491452715823E+00    1.5745674107565238E+01   -3.8197810704305049E+00
C    4.7431208846047967E+00    1.5728936565010489E+01   -3.8496195536708302E+00
C    5.5184992063462941E+00    1.6960521931537819E+01   -4.0453124666965943E+00
C    6.9112224886584332E+00    1.6952985799022805E+01   -4.0590971224529069E+00
C    3.3825757428573788E+00    1.8133190462741503E+01   -3.9598893544353775E+00
C    4.7931217559891364E+00    1.8143567918820462E+01   -4.1191053345767967E+00
C    5.4951935873187656E+00    7.0517957363077670E+00   -3.7992137248147029E+00
C    6.9245653008647299E+00    7.1012554989470544E+00   -3.8559413227380333E+00
C    7.6504627396436220E+00    8.3568981598157528E+00   -3.8819639391955483E+00
C    9.0992153260935638E+00    8.3206029526464853E+00   -3.8710825728986138E+00
C    9.7513196130990742E+00    9.5811699170803131E+00   -3.8209526620899430E+00
C    1.1194934033707481E+01    9.5886477544044446E+00   -3.7657246011576451E+00
C    7.6161388697572683E+00    1.0836975618062310E+01   -3.7508616737762934E+00
C    9.0434490090622734E+00    1.0842337476849332E+01   -3.7616163275073404E+00
C    9.7286262592091024E+00    1.2054300155971532E+01   -3.6225521641619678E+00
C    1.1157692762768976E+01    1.2026707741898989E+01   -3.6582426538444013E+00
C    7.5875726782949560E+00    1.3242762264869565E+01   -3.7265152941675708E+00
C    9.0314078192323208E+00    1.3265480180070162E+01   -3.6557401670186773E+00
C    9.7387715644296939E+00    1.4510994735020239E+01   -3.6107976078871085E+00
C    1.1177514120427601E+01    1.4511830773357454E+01   -3.5408302753549461E+00
C    7.6351718616448467E+00    1.5698676521722522E+01   -3.9201519925284725E+00
C    9.0327759996604318E+00    1.5761612055118709E+01   -3.6887556331310769E+00
C    9.7704034772472976E+00    1.6996929499361450E+01   -3.7397237377887942E+00
C    1.1134587706279532E+01    1.6967935588892708E+01   -3.5422082149475900E+00
C    7.6529945243281556E+00    1.8224851644255097E+01   -4.1087187687850264E+00
C    9.0572441148949103E+00    1.8238919686505650E+01   -3.9662105039253150E+00
C    9.8348012893005894E+00    7.1213615863208553E+00   -3.9371950221076242E+00
C    1.1221088667432085E+01    7.1175826951540104E+00   -3.9256896385677287E+00
C   -8.9965212431699471E-01    2.0644345128884147E+01   -3.9117243263354702E+00
C    5.4696830875839986E-01    2.0571935209079843E+01   -3.9379288227612048E+00
C    1.2637451942156270E+00    2.1843077342889348E+01   -4.0236908049879547E+00
C    2.6608727242812669E+00    2.1898715944481509E+01   -4.1781837004651790E+00
C   -9.2752533451822361E-01    2.3125685776694727E+01   -4.0115171336774926E+00
C    4.9737529582249912E-01    2.3105262909823921E+01   -4.1379022822496800E+00
C    1.1962425613332937E+00    2.4310660353840888E+01   -4.0623363543948434E+00
C    2.6416441814034122E+00    2.4296725337794445E+01   -4.2118375123605833E+00
C   -9.5403588751870971E-01    2.5596401056123465E+01   -3.9727944489472993E+00
C    5.0033073493994462E-01    2.5567524691390517E+01   -4.0387696167331990E+00
C    1.2044579381637210E+00    2.6795867293557137E+01   -3.9563381467581942E+00
C    2.6316532898833027E+00    2.6792784846458058E+01   -4.0467479006126679E+00
C   -8.7158812363690197E-01    2.8059800152428384E+01   -3.7475942118944476E+00
C    4.9068279832713779E-01    2.8005994966225128E+01   -3.7515450316812982E+00
C    1.2162994253892236E+00    2.9240245367379348E+01   -3.7778634942188050E+00
C    2.6273581207374979E+00    2.9260236343850064E+01   -3.8850472665514548E+00
C   -8.8811876709766757E-01    3.0467362839375976E+01   -3.4458554460461230E+00
C    5.4756551034885448E-01    3.0473834854220335E+01   -3.6252930705121336E+00
C    1.2687965924414129E+00    1.9386892256782303E+01   -3.8663949252827541E+00
C    2.7068942431916976E+00    1.9357578511483734E+01   -3.9756865386640334E+00
C    3.3961252765683714E+00    2.0633174730319404E+01   -4.1073529331892944E+00
C    4.7930977590129178E+00    2.0582350901803622E+01   -4.3478992398322864E+00
C    5.5162741600508003E+00    2.1818104430539407E+01   -4.4199680287474532E+00
C    6.9185347017293735E+00    2.1876862839883973E+01   -4.5000536609980060E+00
C    3.3625373888288923E+00    2.3151051051649276E+01   -4.3013855243413577E+00
C    4.8015693462936033E+00    2.3111950692189364E+01   -4.2990245715271245E+00
C    5.5173051772385397E+00    2.4307827331863415E+01   -4.3371966178954429E+00
C    6.9358994362473121E+00    2.4391200789560447E+01   -4.3574677803310564E+00
C    3.3451113445704257E+00    2.5560420532287896E+01   -4.1975377220077057E+00
C    4.7273777261334669E+00    2.5591350025276196E+01   -4.2291009398316151E+00
C    5.4287066462735014E+00    2.6795054474255213E+01   -4.2123646672594246E+00
C    6.9090728063422597E+00    2.6866122439894234E+01   -4.2779968562562036E+00
C    3.3428237539355150E+00    2.8052463884627606E+01   -4.0027781940669893E+00
C    4.7677398629019523E+00    2.8044047691934797E+01   -4.1432122685399078E+00
C    5.5171008916692088E+00    2.9279883156904361E+01   -4.0487811277680201E+00
C    6.9132811828598832E+00    2.9330164426311569E+01   -3.9297539530551897E+00
C    3.3686474413413552E+00    3.0519935284746861E+01   -3.8138030220926189E+00
C    4.7892876874575485E+00    3.0498938041314016E+01   -3.8955255481030102E+00
C    5.5210520110891608E+00    1.9381531929043817E+01   -4.3233276168633425E+00
C    6.9334379836299664E+00    1.9420498120553450E+01   -4.2915171207961951E+00
C    7.6217251269645976E+00    2.0638032624471116E+01   -4.4012820349635717E+00
C    9.0540260033788407E+00    2.0635621939347978E+01   -4.2204555366517873E+00
C    9.7718368584309250E+00    2.1890864557297977E+01   -4.1498519596489185E+00
C    1.1163509606862405E+01    2.1877375487858274E+01   -4.0310127360586305E+00
C    7.6460822717064669E+00    2.3142949566509571E+01   -4.4368755697026261E+00
C    9.0486155022076797E+00    2.3122711394842597E+01   -4.2801337445182890E+00
C    9.7352100886673156E+00    2.4358102258743347E+01   -4.1045653319577795E+00
C    1.1153389743217177E+01    2.4318359380986930E+01   -4.0186365727525279E+00
C    7.6126000008329493E+00    2.5639901823478191E+01   -4.2847713532676917E+00
C    9.0463205397800799E+00    2.5604131837932062E+01   -4.1940983183019860E+00
C    9.7317365560806355E+00    2.6796711041380814E+01   -4.0204346957300965E+00
C    1.1182837239139173E+01    2.6799664372820565E+01   -3.9213982495846689E+00
C    7.6088162369431291E+00    2.8098220790730576E+01   -3.9423688320988837E+00
C    9.0144665842828626E+00    2.8085980557796645E+01   -4.0462491079758305E+00
C    9.7397554379886788E+00    2.9320590127916752E+01   -3.9559688603203034E+00
C    1.1214529373354297E+01    2.9315956664493257E+01   -4.0304055981283069E+00
C    7.6562681124477221E+00    3.0575948915481241E+01   -3.8542496044517272E+00
C    9.1269766464301814E+00    3.0558412072688920E+01   -3.9382239852938663E+00
C    9.7714446147009877E+00    1.9467482673089986E+01   -4.0012255401328174E+00
C    1.1224005702773201E+01    1.9431056446789935E+01   -3.8310306314000715E+00
C    1.1908312772807268E+01    8.3254853529798218E+00   -3.7803460312235404E+00
C    1.3348969715118944E+01    8.3433867973473532E+00   -3.7176002326070519E+00
C    1.4069527154797832E+01    9.5614110400820511E+00   -3.6533990362604087E+00
C    1.5542625980333083E+01    9.5106277466569846E+00   -3.5335636498704615E+00
C    1.1870251763521651E+01    1.0813957913509832E+01   -3.6998006262230065E+00
C    1.3356452090562410E+01    1.0779656023460555E+01   -3.6131445286514516E+00
C    1.4092630418369934E+01    1.1991271296761049E+01   -3.4800045866475866E+00
C    1.5523916258557053E+01    1.1965032824690946E+01   -3.4155987347966534E+00
C    1.1888118227633631E+01    1.3222348445678303E+01   -3.6136797663860594E+00
C    1.3358769276638201E+01    1.3224127410946773E+01   -3.5420061678868402E+00
C    1.4071080222599150E+01    1.4463793647302836E+01   -3.5266521925657184E+00
C    1.5492730085426421E+01    1.4434740337438763E+01   -3.6303288764488078E+00
C    1.1861730888193156E+01    1.5710632185524998E+01   -3.4730962413046105E+00
C    1.3279969351476991E+01    1.5706587629829565E+01   -3.4966294393381143E+00
C    1.4035208470873384E+01    1.6910868919048095E+01   -3.6518514717529165E+00
C    1.5454691579469142E+01    1.6922907305677217E+01   -3.7409799492036462E+00
C    1.1852052608279275E+01    1.8179612876634369E+01   -3.6999847568837962E+00
C    1.3323500624602897E+01    1.8135991865913837E+01   -3.6639462684061068E+00
C    1.4059180257211803E+01    7.1031238569485007E+00   -3.7482400212650400E+00
C    1.5506627570789199E+01    7.0936551013510831E+00   -3.7623458574275617E+00
C    1.6268400947361517E+01    8.2823530191478412E+00   -3.6978195510718708E+00
C    1.7717864738983312E+01    8.2585286580811665E+00   -3.6076707013571463E+00
C    1.8387859480986855E+01    9.4652475352091923E+00   -3.4459596100081149E+00
C    1.9777039776557626E+01    9.4844888782877526E+00   -3.4510779203133941E+00
C    1.6262525972879327E+01    1.0764699386576845E+01   -3.4235894553877357E+00
C    1.7699802089750804E+01    1.0718914029278604E+01   -3.4741144256847289E+00
C    1.8369934565430487E+01    1.1973970191008229E+01   -3.5025431681642973E+00
C    1.9821990671123213E+01    1.1949114274089133E+01   -3.4212248077048608E+00
C    1.6182864175749486E+01    1.3209350378562329E+01   -3.5725040151468059E+00
C    1.7595305102549389E+01    1.3206055552907850E+01   -3.5694008851934718E+00
C    1.8286150873448328E+01    1.4486548986822456E+01   -3.4539036697075263E+00
C    1.9764929625942880E+01    1.4453069700819562E+01   -3.3059315427882612E+00
C    1.6130844555560504E+01    1.5680057826036638E+01   -3.7061527521070268E+00
C    1.7583695998228979E+01    1.5679976949125139E+01   -3.6158227381834931E+00
C    1.8272435542367383E+01    1.6928607833591460E+01   -3.6449277304131913E+00
C    1.9689530379652723E+01    1.6937738815580953E+01   -3.5356082801539279E+00
C    1.6173326315120587E+01    1.8185741721641065E+01   -3.8964600989670912E+00
C    1.7602130689349917E+01    1.8130355555190288E+01   -3.8700196933341346E+00
C    1.8355663037890370E+01    7.0527927174539027E+00   -3.7519173343025538E+00
C    1.9801337656597411E+01    7.0715132682286335E+00   -3.6548566710700525E+00
C    2.0505376181579066E+01    8.2777637870189533E+00   -3.6489851082431963E+00
C    2.1930315185517721E+01    8.2947807599922374E+00   -3.5502509151346211E+00
C    2.2604059607157513E+01    9.5287998484988741E+00   -3.5024663244185898E+00
C    2.4041826892173969E+01    9.5535414771641776E+00   -3.4349608460507075E+00
C    2.0485216466835009E+01    1.0684578628928083E+01   -3.3563991920919793E+00
C    2.1869208827999227E+01    1.0798157381086130E+01   -3.4291230694938131E+00
C    2.2566187765189106E+01    1.1986039340306734E+01   -3.2219176113236618E+00
C    2.4028815541568534E+01    1.1998784524776132E+01   -3.3166800454634169E+00
C    2.0496291007663455E+01    1.3192928379981453E+01   -3.2432566956313718E+00
C    2.1927532659295174E+01    1.3266094819604959E+01   -3.2611159855578031E+00
C    2.2593609329699795E+01    1.4464624189148696E+01   -3.3916402085628832E+00
C    2.3980171117203028E+01    1.4491797914174578E+01   -3.5012968827073339E+00
C    2.0400479401102167E+01    1.5708283433819608E+01   -3.4692759791953827E+00
C    2.1835468858961100E+01    1.5688830311517000E+01   -3.3841105451667248E+00
C    2.2573713437935766E+01    1.6944619644787092E+01   -3.4092257202971243E+00
C    2.3955101630766617E+01    1.6933419666362461E+01   -3.5574835346035583E+00
C    2.0414149320729074E+01    1.8169193660474455E+01   -3.5617797532774089E+00
C    2.1845679084778130E+01    1.8161735734132339E+01   -3.4833867315766258E+00
C    2.2623389892439945E+01    7.0766831975981104E+00   -3.4465768418943896E+00
C    2.4014021334190737E+01    7.0211383291667078E+00   -3.4878525243964908E+00
C    1.1939404570113437E+01    2.0655319804240975E+01   -3.9544819982463757E+00
C    1.3350175866396537E+01    2.0588793850959775E+01   -3.8465392612462357E+00
C    1.4060527109770993E+01    2.1845508736964174E+01   -3.8813763382520055E+00
C    1.5431795779883629E+01    2.1919866882039393E+01   -3.7900581282465589E+00
C    1.1890747067188840E+01    2.3095163886159316E+01   -4.0063472719190747E+00
C    1.3350197197914250E+01    2.3105983552666252E+01   -3.9560758423799784E+00
C    1.4005855872974118E+01    2.4360141223589224E+01   -3.8748753699590717E+00
C    1.5433221829745841E+01    2.4418234287296400E+01   -3.7396200998772064E+00
C    1.1826210610065958E+01    2.5551481430933215E+01   -3.9100639473223322E+00
C    1.3307167194860186E+01    2.5611325798911007E+01   -3.8199927294051550E+00
C    1.4055978870977352E+01    2.6831990413876575E+01   -3.8511941158019485E+00
C    1.5454164577915201E+01    2.6875673497433471E+01   -3.7239569329173241E+00
C    1.1881070855696587E+01    2.8049945918918926E+01   -3.8888741506541176E+00
C    1.3338676261113905E+01    2.8029502685490542E+01   -3.8574548469910361E+00
C    1.4057584788589464E+01    2.9278438270170938E+01   -3.7630573631108093E+00
C    1.5452699474220408E+01    2.9267404046248412E+01   -3.7332118490839976E+00
C    1.1897128275888971E+01    3.0580217642855324E+01   -3.9266981073628751E+00
C    1.3340821218402034E+01    3.0534545510556679E+01   -3.7684742438058354E+00
C    1.4008520723117886E+01    1.9374199905899125E+01   -3.7150682401714805E+00
C    1.5480814516222241E+01    1.9375669503632512E+01   -3.7865442943028582E+00
C    1.6136363127457301E+01    2.0646503608405130E+01   -3.7504384345433470E+00
C    1.7600275609235272E+01    2.0672956914771937E+01   -3.7322745152115502E+00
C    1.8274884408780352E+01    2.1869070029796315E+01   -3.6699272548414505E+00
C    1.9704489395332295E+01    2.1894565190805562E+01   -3.6170246187916533E+00
C    1.6131779151061341E+01    2.3202362925567083E+01   -3.6993220674758347E+00
C    1.7559424279366745E+01    2.3142683845274121E+01   -3.7135370585646901E+00
C    1.8318104550448822E+01    2.4348037880301309E+01   -3.6953125728796468E+00
C    1.9733679824123591E+01    2.4333066819807783E+01   -3.7520993718151816E+00
C    1.6197760945194712E+01    2.5625378710514660E+01   -3.7862204706347371E+00
C    1.7626908788720158E+01    2.5614771827872822E+01   -3.7634630396205986E+00
C    1.8310118866880536E+01    2.6830648944049710E+01   -3.7129215866707819E+00
C    1.9744503601738145E+01    2.6786931135434951E+01   -3.7421145937767881E+00
C    1.6170471901980846E+01    2.8053274580194802E+01   -3.7299721096516727E+00
C    1.7588777973575123E+01    2.8027311803972140E+01   -3.7079357557349693E+00
C    1.8327845030177365E+01    2.9272017193835303E+01   -3.6520200150683211E+00
C    1.9781793507672472E+01    2.9281453347711569E+01   -3.7421860991985989E+00
C    1.6226689312002740E+01    3.0486945073428416E+01   -3.6451884458250592E+00
C    1.7630795666903733E+01    3.0493209598808956E+01   -3.7626740384218094E+00
C    1.8299992936827959E+01    1.9434203167137873E+01   -3.7521036476474339E+00
C    1.9718983063912336E+01    1.9388601727350288E+01   -3.6574520915377393E+00
C    2.0454046921714703E+01    2.0631713708576829E+01   -3.5660295339555845E+00
C    2.1880170728629523E+01    2.0631573253945270E+01   -3.6030012476844173E+00
C    2.2573614449214002E+01    2.1877549585506820E+01   -3.7669844091698073E+00
C    2.4020011738535644E+01    2.1881872601918030E+01   -3.8681330466370896E+00
C    2.0464267720665422E+01    2.3090251359096960E+01   -3.6484775960534419E+00
C    2.1879954061687396E+01    2.3121444317839753E+01   -3.6862257337737518E+00
C    2.2558282090216160E+01    2.4395687593199252E+01   -3.8554647776238342E+00
C    2.3945357411337827E+01    2.4360630527299094E+01   -3.9811233199471441E+00
C    2.0413744281342893E+01    2.5546095198944546E+01   -3.8283056954841546E+00
C    2.1871209517981036E+01    2.5569038207469756E+01   -3.8845895208348380E+00
C    2.2555356110130795E+01    2.6810041242050517E+01   -3.9371066716715410E+00
C    2.3967144861656539E+01    2.6862704130420379E+01   -3.9788336865196943E+00
C    2.0467036912744909E+01    2.8012770016293373E+01   -3.7747491906648256E+00
C    2.1859087542428512E+01    2.8055922281522840E+01   -3.7590335153890515E+00
C    2.2571658523491973E+01    2.9325915344070307E+01   -3.6523780060976394E+00
C    2.4023854659192398E+01    2.9249457534356502E+01   -3.5988454308231153E+00
C    2.0477583533070344E+01    3.0501577560846371E+01   -3.7538231275174065E+00
C    2.1896110203808817E+01    3.0533031268145823E+01   -3.5816264586479769E+00
C    2.2558346955013256E+01    1.9386148480702335E+01   -3.5844065377735213E+00
C    2.3981462679587764E+01    1.9363878354910788E+01   -3.7332239569870596E+00
O    1.5437508245023926E+02    1.7894987267868558E+02    5.5075660825191353E+00
H    1.5510419053290715E+02    1.7825195131896064E+02    5.5883473487103315E+00
H    1.5487417214819027E+02    1.7977262315536331E+02    5.2884379994607640E+00
O    1.7883558878998548E+02    2.0257059011200499E+02    1.2861866967788792E+01
H    1.7956966827251841E+02    2.0198089075427163E+02    1.3108986298695063E+01
H    1.7865524673816299E+02    2.0226154970991655E+02    1.1957271607754405E+01
O    1.4049135561351710E+02    3.1843057763691155E+02    8.6415472227778256E+00
H    1.4101872278963685E+02    3.1907907569895025E+02    8.1688862008203564E+00
H    1.3967246650273924E+02    3.1836289495596316E+02    8.1413342261694837E+00
O    1.5240361021033186E+02    2.0600362732625337E+02    3.2375486188418248E+00
H    1.5213172793298367E+02    2.0545752009032395E+02    4.0033924813961441E+00
H    1.5154862559535073E+02    2.0644341537811223E+02    3.0064420737750024E+00
O    8.7150699911445315E+01    2.9263040777876779E+02    1.9640424045455305E+00
H    8.8056664137492461E+01    2.9235266498743113E+02    2.2820886336220099E+00
H    8.6440356303478879E+01    2.9220218128736155E+02    2.4735219489202223E+00
O    1.3572312842722630E+02    1.7726755976521068E+02    5.7595527020484010E+00
H    1.3655933946958743E+02    1.7749162110915773E+02    6.2495604783999390E+00
H    1.3503384136830644E+02    1.7806071558929608E+02    5.8581849406160558E+00
O    1.8753548216930713E+02    1.4988470629998460E+02    1.2959049651571192E+01
H    1.8745024121346012E+02    1.4986138780334414E+02    1.1971398656642316E+01
H    1.8851017840120838E+02    1.4989737515890644E+02    1.3041796366737373E+01
O    1.6826767930884716E+02    2.0046714450162784E+02    1.6533970110565274E+01
H    1.6758326457518231E+02    2.0077980908449521E+02    1.5883870926866042E+01
H    1.6767690579301231E+02    2.0007125884357808E+02    1.7166155113060888E+01
O    7.4735801532492516E+01    2.7790689570576086E+02    5.0671270518564810E+00
H    7.5694098563880800E+01    2.7763770529913177E+02    5.2843334228721295E+00
H    7.4314465663091880E+01    2.7821854845462093E+02    5.9324918147614536E+00
O    2.1658467954904665E+02    3.0532318847520349E+02    1.5373731917615709E+01
H    2.1648949086737761E+02    3.0621549205467471E+02    1.5934084470183407E+01
H    2.1603586575455711E+02    3.0469450906828735E+02    1.5884557046978204E+01
O    1.7518861976839207E+02    2.2683727839283716E+02    1.1081909033288349E+01
H    1.7450143977686400E+02    2.2708042299454772E+02    1.1722451699668690E+01
H    1.7575473248590822E+02    2.2763507046318222E+02    1.1045411560527358E+01
O    9.2109024339070089E+01    2.1623060579778888E+02    1.7164151158893561E+00
H    9.2531224769555593E+01    2.1623744096369745E+02    8.0049474557973743E-01
H    9.1510634680502307E+01    2.1545176431095229E+02    1.8664545120795628E+00
O    1.8987050324036414E+02    1.9050874429590922E+02    2.5244626220676172E+00
H    1.9082904115869641E+02    1.9024475229500140E+02    2.5932148116920359E+00
H    1.8968895091252813E+02    1.9075107270451710E+02    1.5507098166039472E+00
O    2.2067062431142639E+02    6.5681661967270202E+01   -1.1690701099188534E+00
H    2.2088716681103881E+02    6.6660471038233993E+01   -1.2123292780201320E+00
H    2.2148142583646379E+02    6.5373190466994473E+01   -6.8166064513965130E-01
O    9.5698679852436968E+01    2.9230124550018803E+02   -4.7551404898512578E-01
H    9.6578598760160872E+01    2.9215450169541379E+02   -8.8003227512700966E-01
H    9.5906769372483595E+01    2.9239866366913253E+02    5.1726003245468555E-01
O    1.5638521511131717E+02    3.0318978451449613E+02    9.0267620264467574E+00
H    1.5633201680803083E+02    3.0417888683347599E+02    9.1192871568240186E+00
H    1.5722201959959338E+02    3.0304538517215968E+02    8.4540546745931540E+00
O    1.1381072337513795E+02    2.7845385393560917E+02   -2.4652312156495571E-01
H    1.1295072914352625E+02    2.7819088947652392E+02   -6.6612731323538288E-01
H    1.1435451550516990E+02    2.7764431134460818E+02   -3.8478654964427011E-01
O    9.0085835006676845E+01    1.8988160741420953E+02    2.3787856800174900E+00
H    9.0222309034484368E+01    1.8916298920796041E+02    1.6633562987348711E+00
H    9.0526617580503483E+01    1.8945228978669016E+02    3.1274480636670732E+00
O    7.7489908710747784E+01    2.6621211875197326E+02    8.3275303768852567E+00
H    7.8193088376533126E+01    2.6549558882364187E+02    8.3523781084465618E+00