 # Version information for this restart file 
 # current date 2020-01-19 14:05:18.060
 # current working dir /scratch/snx3000/gtocci/gtocci/MEMBRANES/AIMD_US_IONS_BN/aimd_us_iodide/us_19
 # Program compiled at                              Fri Nov 22 15:19:42 CET 2019
 # Program compiled on                                                  daint102
 # Program compiled for                                   CRAY_XC50-gfortran_gpu
 # Source code revision number                                       git:a698b45
 &GLOBAL
   PRINT_LEVEL  LOW
   PROJECT_NAME BNS
   RUN_TYPE  MD
   WALLTIME 86400
 &END GLOBAL
 &MOTION
   &MD
     ENSEMBLE  NVT
     STEPS  2000
     TIMESTEP     9.9999999999999989E-01
     STEP_START_VAL  44699
     TIME_START_VAL     4.4698999999984975E+04
     ECONS_START_VAL    -8.4830629231465173E+03
     TEMPERATURE     3.0000000000000000E+02
     TEMP_KIND  T
     &BAROSTAT
       PRESSURE     1.0000000000000000E+00
       TIMECON     9.9999999999999986E+01
       VIRIAL  Z
     &END BAROSTAT
     &THERMOSTAT
       TYPE  NOSE
       REGION  GLOBAL
       &NOSE
         LENGTH  4
         TIMECON     9.9999999999999986E+01
         MTS  2
         &COORD
               3.4237144860543339E-01   -4.0901014818517094E+00   -3.7718229680564704E+01    2.6326858777776025E+01
         &END COORD
         &VELOCITY
               4.2341432453346059E-06   -1.4630486324965932E-04   -2.3647674888947019E-04   -4.2597210328059452E-05
         &END VELOCITY
         &MASS
               7.0145132684705392E+07    1.6237299232570693E+04    1.6237299232570693E+04    1.6237299232570693E+04
         &END MASS
         &FORCE
               3.7744480120602946E-10    1.8938812324989655E-08   -3.7104900839603557E-08   -2.5887610847715259E-09
         &END FORCE
       &END NOSE
     &END THERMOSTAT
     &AVERAGES  T
       &RESTART_AVERAGES
         ITIMES_START  1
         AVECPU     2.3993282925087346E+01
         AVEHUGONIOT     0.0000000000000000E+00
         AVETEMP_BARO     0.0000000000000000E+00
         AVEPOT    -8.4858069848084797E+03
         AVEKIN     2.0481896241781001E+00
         AVETEMP     2.9942886917282328E+02
         AVEKIN_QM     0.0000000000000000E+00
         AVETEMP_QM     0.0000000000000000E+00
         AVEVOL     2.2086622704881465E+05
         AVECELL_A     4.9287836997924941E+01
         AVECELL_B     4.7426456757033144E+01
         AVECELL_C     9.4486306644279836E+01
         AVEALPHA     9.0000000000000000E+01
         AVEBETA     9.0000000000000000E+01
         AVEGAMMA     9.0000000000000000E+01
         AVE_ECONS     4.8429385382866791E+01
         AVE_PRESS     0.0000000000000000E+00
         AVE_PXX     0.0000000000000000E+00
       &END RESTART_AVERAGES
     &END AVERAGES
     &PRINT
       &TEMP_KIND  SILENT
       &END TEMP_KIND
     &END PRINT
   &END MD
   &FREE_ENERGY
     &METADYN
       MIN_DISP    -1.0000000000000000E+00
       OLD_HILL_NUMBER  0
       OLD_HILL_STEP  0
       DO_HILLS  F
       STEP_START_VAL  44699
       NHILLS_START_VAL  0
       &METAVAR
         SCALE     1.0000000000000000E+00
         COLVAR  1
       &END METAVAR
       &PRINT
         &COLVAR  SILENT
           COMMON_ITERATION_LEVELS  3
           &EACH
             MD  1
           &END EACH
         &END COLVAR
       &END PRINT
     &END METADYN
   &END FREE_ENERGY
   &CONSTRAINT
     &COLLECTIVE
       COLVAR  1
       INTERMOLECULAR  T
       &RESTRAINT
         K     4.4625385281452931E-04
       &END RESTRAINT
     &END COLLECTIVE
     &COLVAR_RESTART
           1.8174732006365829E+01
     &END COLVAR_RESTART
   &END CONSTRAINT
   &PRINT
     &TRAJECTORY  SILENT
       &EACH
         MD  1
       &END EACH
     &END TRAJECTORY
     &VELOCITIES  SILENT
       &EACH
         MD  1
       &END EACH
     &END VELOCITIES
     &FORCES  SILENT
       UNIT eV*angstrom^-1
       &EACH
         MD  1
       &END EACH
     &END FORCES
     &RESTART  SILENT
       &EACH
         MD  1
       &END EACH
     &END RESTART
     &RESTART_HISTORY  SILENT
       &EACH
         MD  100
       &END EACH
     &END RESTART_HISTORY
   &END PRINT
 &END MOTION
 &FORCE_EVAL
   METHOD  QS
   &DFT
     BASIS_SET_FILE_NAME /users/gtocci/scratch_daint_3000/data_cp2k//BASIS_MOLOPT
     POTENTIAL_FILE_NAME /users/gtocci/scratch_daint_3000/data_cp2k//GTH_POTENTIALS
     WFN_RESTART_FILE_NAME ./BNS-RESTART.wfn
     CHARGE  -1
     &SCF
       MAX_SCF  10
       EPS_SCF     9.9999999999999995E-07
       SCF_GUESS  RESTART
       &OT  T
         MINIMIZER  DIIS
         PRECONDITIONER  FULL_KINETIC
       &END OT
       &OUTER_SCF  T
         EPS_SCF     9.9999999999999995E-07
         MAX_SCF  30
       &END OUTER_SCF
       &PRINT
         &RESTART  SILENT
           ADD_LAST  NUMERIC
           &EACH
             QS_SCF  50
           &END EACH
         &END RESTART
       &END PRINT
     &END SCF
     &QS
       MAP_CONSISTENT  T
       EXTRAPOLATION  ASPC
       EXTRAPOLATION_ORDER  4
     &END QS
     &MGRID
       NGRIDS  5
       CUTOFF     4.6000000000000000E+02
     &END MGRID
     &XC
       DENSITY_CUTOFF     1.0000000000000000E-10
       GRADIENT_CUTOFF     1.0000000000000000E-10
       TAU_CUTOFF     1.0000000000000000E-10
       &XC_GRID
         XC_DERIV  SPLINE2_SMOOTH
       &END XC_GRID
       &XC_FUNCTIONAL  NO_SHORTCUT
         &LIBXC  T
           FUNCTIONAL XC_GGA_X_OPTB88_VDW
         &END LIBXC
         &VWN  T
         &END VWN
       &END XC_FUNCTIONAL
       &VDW_POTENTIAL
         POTENTIAL_TYPE  NON_LOCAL
         &NON_LOCAL
           TYPE  DRSLL
           VERBOSE_OUTPUT  T
           KERNEL_FILE_NAME /users/gtocci/scratch_daint_3000/data_cp2k//vdW_kernel_table.dat
           CUTOFF     3.6000000000000000E+02
         &END NON_LOCAL
       &END VDW_POTENTIAL
     &END XC
     &REAL_TIME_PROPAGATION
       INITIAL_WFN  SCF_WFN
     &END REAL_TIME_PROPAGATION
     &PRINT
       &MULLIKEN  SILENT
         FILENAME =BNS.mulliken
       &END MULLIKEN
     &END PRINT
   &END DFT
   &SUBSYS
     &CELL
       A     2.6082000000000019E+01    0.0000000000000000E+00    0.0000000000000000E+00
       B     0.0000000000000000E+00    2.5097000000000001E+01    0.0000000000000000E+00
       C     0.0000000000000000E+00    0.0000000000000000E+00    5.0000000000000028E+01
       MULTIPLE_UNIT_CELL  1 1 1
     &END CELL
     &COORD
B   -4.8128424676143613E+00    9.7500911856147763E+00   -2.8959980927859629E+01
B   -2.6752388188582752E+00    1.0990532360749738E+01   -2.9167570944980856E+01
B   -4.8621931291861831E+00    1.2288726580396050E+01   -2.8954088879939572E+01
B   -2.6042601787865340E+00    1.3511709204743731E+01   -2.9114208868547056E+01
B   -4.7831487372389105E+00    1.4796636226638235E+01   -2.8915541397852802E+01
B   -2.6334379247861102E+00    1.6026764682044298E+01   -2.9213406917535803E+01
B   -4.8314386365887154E+00    1.7310032583246134E+01   -2.9161509653412836E+01
B   -2.6225385618187529E+00    1.8512097177746000E+01   -2.9230818181150134E+01
B   -4.8300554229674901E+00    1.9747773768569648E+01   -2.9175375546197245E+01
B   -2.6939906766507842E+00    2.1022539242492165E+01   -2.9057693481169260E+01
B   -5.3393958806678643E-01    9.7241021620979744E+00   -2.9283378360143168E+01
B    1.6966945362810979E+00    1.0933211061453061E+01   -2.9082232716520718E+01
B   -4.8917447155864946E-01    1.2259006413783229E+01   -2.9130268070494225E+01
B    1.6868346730661286E+00    1.3526880202263884E+01   -2.9188549635755503E+01
B   -4.8212201524511150E-01    1.4797697129518399E+01   -2.9257455691259644E+01
B    1.7533114596169754E+00    1.6073713149359850E+01   -2.9161389807841939E+01
B   -4.8667519077434512E-01    1.7343412817440200E+01   -2.9377658413040944E+01
B    1.7350087135487953E+00    1.8564666214989789E+01   -2.9134700233463942E+01
B   -5.1890380969043337E-01    1.9794854280821124E+01   -2.9102731848874193E+01
B    1.7175674749966949E+00    2.0998089225728471E+01   -2.8914467488992322E+01
B    3.8997340886525524E+00    9.7283344497485835E+00   -2.9129269097424022E+01
B    6.0813505223150948E+00    1.0965856974806002E+01   -2.9091280535088210E+01
B    3.8885990772114774E+00    1.2270643529888188E+01   -2.9130369880826297E+01
B    6.0535890986912122E+00    1.3521883356449228E+01   -2.9116693724569153E+01
B    3.8563185211455262E+00    1.4769212147629609E+01   -2.9166645894375019E+01
B    6.0614202404619535E+00    1.6024046896364109E+01   -2.9299322347992867E+01
B    3.9139230622691841E+00    1.7314763534269229E+01   -2.9175085005529258E+01
B    6.1141926780491112E+00    1.8533295722295275E+01   -2.9254931791072256E+01
B    3.8994508067583129E+00    1.9794365845289462E+01   -2.9075473496225868E+01
B    6.0515090479702334E+00    2.1026966654013343E+01   -2.9073648149801770E+01
N   -3.3599889655670792E+00    9.7215835521721701E+00   -2.9050038809835701E+01
N   -1.2606387142426774E+00    1.0992597951308481E+01   -2.9194457689233836E+01
N   -3.3726408170065634E+00    1.2250315108560759E+01   -2.9070697760202822E+01
N   -1.1631979451480958E+00    1.3539633613546943E+01   -2.9138756312412095E+01
N   -3.3284643808206096E+00    1.4763052046345113E+01   -2.9173031511949340E+01
N   -1.1938694242260972E+00    1.6052415053700592E+01   -2.9354786961916304E+01
N   -3.3747308201262793E+00    1.7235764543280666E+01   -2.9140388163326431E+01
N   -1.2067479734537292E+00    1.8583175794467024E+01   -2.9309950094539289E+01
N   -3.3703097982916921E+00    1.9764008339872639E+01   -2.9181474110595772E+01
N   -1.1897846469120388E+00    2.1063329523722732E+01   -2.8953664147797358E+01
N    9.1894675032240725E-01    9.7528571927364958E+00   -2.9254359849727503E+01
N    3.1672222023904730E+00    1.1014608259098011E+01   -2.9126338694335331E+01
N    9.8838505921315578E-01    1.2247073427921553E+01   -2.9103425523351397E+01
N    3.1865087058436288E+00    1.3515587559300437E+01   -2.9210878039468007E+01
N    9.8617326717147047E-01    1.4801741255744725E+01   -2.9255069108563521E+01
N    3.2192369345859624E+00    1.6074709994190936E+01   -2.9097425580136864E+01
N    1.0012873455546456E+00    1.7298773309156179E+01   -2.9235972542672489E+01
N    3.1667285860664398E+00    1.8567250105460413E+01   -2.9074557225177887E+01
N    9.6287197951842396E-01    1.9821218836980584E+01   -2.9006121785825968E+01
N    3.1653220373094118E+00    2.0999440359908544E+01   -2.8890767711222480E+01
N    5.3112341500062623E+00    9.7483894925789922E+00   -2.9043709780786614E+01
N    7.4958983949071998E+00    1.1017890678876935E+01   -2.9177915357580865E+01
N    5.3281271592407196E+00    1.2214536536458592E+01   -2.9016165074781714E+01
N    7.5163612881126740E+00    1.3508751651612958E+01   -2.9273238922901523E+01
N    5.3315827927305941E+00    1.4758775458988893E+01   -2.9346689930648537E+01
N    7.5207962215483990E+00    1.6057959383212488E+01   -2.9400196594091721E+01
N    5.3627887748012819E+00    1.7324303893664450E+01   -2.9259167153557510E+01
N    7.5201026843579539E+00    1.8534734745836950E+01   -2.9401319618983194E+01
N    5.3590131678135675E+00    1.9783003369796862E+01   -2.9147723838468263E+01
N    7.5120471999846217E+00    2.1007537214198969E+01   -2.9170461036803601E+01
B   -4.9339476245959624E+00    2.2289561507786107E+01   -2.9012317678590502E+01
B   -2.6653465758230257E+00    2.3513141205660645E+01   -2.8940682676908690E+01
B   -4.8133552127033168E+00    2.4790824593489344E+01   -2.8798342986098220E+01
B   -2.6145055937330683E+00    2.6111096524918942E+01   -2.8873631102901420E+01
B   -4.8716287679656052E+00    2.7342227499247073E+01   -2.8685332633789990E+01
B   -2.6189841745424887E+00    2.8543792963414294E+01   -2.8957482626161902E+01
B   -4.8640256792859651E+00    2.9810380913298168E+01   -2.8993912570956898E+01
B   -2.6584546395131832E+00    3.0973787287384710E+01   -2.9158824887207238E+01
B   -4.8268651130720679E+00    3.2290820941229782E+01   -2.8934259905719173E+01
B   -2.6588878078175533E+00    3.3563118843324595E+01   -2.9231602302441480E+01
B   -4.4136876703134104E-01    2.2308249519186038E+01   -2.9039390893553282E+01
B    1.6853583855668144E+00    2.3533609769833568E+01   -2.9054636911105490E+01
B   -4.5921780771431697E-01    2.4881304548787128E+01   -2.9075493834918383E+01
B    1.6774460209757380E+00    2.6051491938467457E+01   -2.9176029330419599E+01
B   -4.3918939020130010E-01    2.7318069525522262E+01   -2.9050092943633430E+01
B    1.7462973580552936E+00    2.8568355814660080E+01   -2.9268302575057813E+01
B   -4.6673317077196946E-01    2.9815983429694086E+01   -2.9143083987744298E+01
B    1.7085101147731727E+00    3.1047738900837608E+01   -2.9401047758205927E+01
B   -5.0860001226245299E-01    3.2321888318848195E+01   -2.9216008362790753E+01
B    1.7455937726144657E+00    3.3582024901085447E+01   -2.9254965513753756E+01
B    3.8661540545851927E+00    2.2299319610139808E+01   -2.8907986608222778E+01
B    6.0525751887346244E+00    2.3565664393958507E+01   -2.9116711723019179E+01
B    3.8497927832406211E+00    2.4832311550905001E+01   -2.9085651247799973E+01
B    6.0181044148497094E+00    2.6037001512772392E+01   -2.9347001305243605E+01
B    3.8250272431602892E+00    2.7280448671329566E+01   -2.9337249185210126E+01
B    5.9814807079614081E+00    2.8516581082203814E+01   -2.9395147327837151E+01
B    3.8817471395569836E+00    2.9863035704713614E+01   -2.9272071223735619E+01
B    6.1121631867134081E+00    3.1068731250123346E+01   -2.9246500802413625E+01
B    3.8490464171852996E+00    3.2349859556412277E+01   -2.9196467755644214E+01
B    6.0126067973776962E+00    3.3552224084724699E+01   -2.9142941341357581E+01
N   -3.4510940708128066E+00    2.2322111946986951E+01   -2.8895588176131106E+01
N   -1.2277357309438164E+00    2.3553389600230616E+01   -2.9174566109535384E+01
N   -3.3697363060663315E+00    2.4809311133806009E+01   -2.8841014589169589E+01
N   -1.1873529623287773E+00    2.6090230163595070E+01   -2.9096013527696272E+01
N   -3.3951895631621269E+00    2.7329955347590413E+01   -2.8777158689946766E+01
N   -1.1689985264156897E+00    2.8551012803923054E+01   -2.9065674051319640E+01
N   -3.3792846956374336E+00    2.9773199405448906E+01   -2.9222559862726495E+01
N   -1.1949014615715186E+00    3.1035116067698404E+01   -2.9243654926419506E+01
N   -3.3646653445443810E+00    3.2251711784504593E+01   -2.9123583619497911E+01
N   -1.2101484963069091E+00    3.3542266303178202E+01   -2.9201180577558564E+01
N    1.0123155560285659E+00    2.2267027974811313E+01   -2.9040876883429473E+01
N    3.1422689972809694E+00    2.3560449317567560E+01   -2.8932493122424525E+01
N    9.3182845296966776E-01    2.4799578899788759E+01   -2.9112278422034176E+01
N    3.1390892454263915E+00    2.6047238699416773E+01   -2.9123217517072469E+01
N    9.9937831610114436E-01    2.7311121936541213E+01   -2.9121783054133616E+01
N    3.1703758110518572E+00    2.8572994660544030E+01   -2.9335464420727813E+01
N    9.8064391932988648E-01    2.9830262288286523E+01   -2.9346047659672866E+01
N    3.1502688990585712E+00    3.1076856654098908E+01   -2.9319799206583145E+01
N    1.0149090674127998E+00    3.2368939133074242E+01   -2.9400880679800029E+01
N    3.1443892484020548E+00    3.3576187785676723E+01   -2.9105792180622508E+01
N    5.3453619824436478E+00    2.2298873174657601E+01   -2.9015613001696931E+01
N    7.4865490609584766E+00    2.3468465071052020E+01   -2.9111487582304775E+01
N    5.3164406462470737E+00    2.4783237976197810E+01   -2.9192817146513327E+01
N    7.4959906157339313E+00    2.6044624946520369E+01   -2.9356211561978160E+01
N    5.2736468274980188E+00    2.7268314775029697E+01   -2.9446307484093420E+01
N    7.4297344673356127E+00    2.8549891104125166E+01   -2.9300264160683508E+01
N    5.3481337076160864E+00    2.9809871712237182E+01   -2.9320641088850842E+01
N    7.5530461820454340E+00    3.1097135544171444E+01   -2.9266092542138512E+01
N    5.3428743257799045E+00    3.2302596574193920E+01   -2.9192994549798943E+01
N    7.4556554458363173E+00    3.3590795287762717E+01   -2.9153441381948948E+01
B    8.2355731520691560E+00    9.7680355543446744E+00   -2.9083674260077380E+01
B    1.0437766326070880E+01    1.0972972695918463E+01   -2.9112723055342766E+01
B    8.2232353597569912E+00    1.2262800804745970E+01   -2.9248572836346504E+01
B    1.0373629911768084E+01    1.3533070443026389E+01   -2.9144946336773945E+01
B    8.1931732001515822E+00    1.4747242527367732E+01   -2.9393746590753786E+01
B    1.0420985841180553E+01    1.6000939118228718E+01   -2.9364110706010266E+01
B    8.2661157455533836E+00    1.7264345327818308E+01   -2.9352673155269557E+01
B    1.0374278168630788E+01    1.8561817266078311E+01   -2.9322284725237822E+01
B    8.1972142475406926E+00    1.9740536814856753E+01   -2.9277890353921052E+01
B    1.0369614546924787E+01    2.1076662586916381E+01   -2.9375735598509980E+01
B    1.2625256521815247E+01    9.7693683174702493E+00   -2.8976576656699294E+01
B    1.4750667152330308E+01    1.1039541866638405E+01   -2.8993239542610720E+01
B    1.2554660992694034E+01    1.2308920222976687E+01   -2.9062371406922313E+01
B    1.4748081864622252E+01    1.3572884765383835E+01   -2.9158955557137677E+01
B    1.2593534951660569E+01    1.4805106104648354E+01   -2.9208031585539004E+01
B    1.4761387656843898E+01    1.6076659046427725E+01   -2.9339987365009634E+01
B    1.2590862641153862E+01    1.7316531775275919E+01   -2.9513968195053554E+01
B    1.4675999445419153E+01    1.8569865509615884E+01   -2.9608977559477111E+01
B    1.2520649441773736E+01    1.9799676242658006E+01   -2.9574602171260690E+01
B    1.4757564193731408E+01    2.1024789847236665E+01   -2.9429352197754046E+01
B    1.6911361341483154E+01    9.7264565499635918E+00   -2.9044966439001939E+01
B    1.9076279054550916E+01    1.1025812836383491E+01   -2.8958510383649966E+01
B    1.6900255790004003E+01    1.2302667278233848E+01   -2.9002704761979313E+01
B    1.9129702307769634E+01    1.3555171300853878E+01   -2.8984889933226917E+01
B    1.6914202189713503E+01    1.4774615973680380E+01   -2.9102070404743753E+01
B    1.9082063699053712E+01    1.6080146452304753E+01   -2.9139676715080871E+01
B    1.6876581870499422E+01    1.7351893646213920E+01   -2.9386398311211508E+01
B    1.9047812490800013E+01    1.8572923288910363E+01   -2.9354257074240046E+01
B    1.6848393116587985E+01    1.9860732104219085E+01   -2.9529993309166159E+01
B    1.9073114411619017E+01    2.1044064313058726E+01   -2.9411992237456886E+01
N    9.6869817685448130E+00    9.7340033059500684E+00   -2.8990687469645167E+01
N    1.1866574030634759E+01    1.0994724652471504E+01   -2.8959883365070429E+01
N    9.6774321649740482E+00    1.2289327826008188E+01   -2.9198214863626877E+01
N    1.1860211693601560E+01    1.3593285683554573E+01   -2.8918982165777003E+01
N    9.6394504076937828E+00    1.4780870877900268E+01   -2.9223995120977829E+01
N    1.1843541376665005E+01    1.6061922281417427E+01   -2.9467324409402490E+01
N    9.6925590262814918E+00    1.7253071414354309E+01   -2.9261486295408137E+01
N    1.1838873911258833E+01    1.8572487793418418E+01   -2.9457964630981817E+01
N    9.6644008410311031E+00    1.9767200347671089E+01   -2.9280169090688119E+01
N    1.1837052168956516E+01    2.1034378383695387E+01   -2.9591514648768126E+01
N    1.4041645418657712E+01    9.7702414044373089E+00   -2.9065557554040179E+01
N    1.6213332194377369E+01    1.0986844372966154E+01   -2.9138474303734590E+01
N    1.4000473116510268E+01    1.2290855963548186E+01   -2.9135781996858032E+01
N    1.6201132410790400E+01    1.3536012918452890E+01   -2.9021448775687759E+01
N    1.4034919248953857E+01    1.4813890146601409E+01   -2.9324076691686503E+01
N    1.6179019752207090E+01    1.6073652393015621E+01   -2.9256045394864451E+01
N    1.4010210759828976E+01    1.7337069288884024E+01   -2.9395273472088196E+01
N    1.6107959156887180E+01    1.8584595783753699E+01   -2.9466722212785768E+01
N    1.3984695712728577E+01    1.9835207530377964E+01   -2.9630459613127048E+01
N    1.6192262858210100E+01    2.1115525622102830E+01   -2.9495512593409504E+01
N    1.8367309732518713E+01    9.7519259931406754E+00   -2.8973179412038526E+01
N    2.0561279895355856E+01    1.1021060349806902E+01   -2.8947463245545336E+01
N    1.8363437040890215E+01    1.2308775413233272E+01   -2.9021490516845194E+01
N    2.0591969942722447E+01    1.3564348587240449E+01   -2.8944342178991906E+01
N    1.8360402244158696E+01    1.4790715573078323E+01   -2.9154017940462616E+01
N    2.0548576343914583E+01    1.6076110376485406E+01   -2.9024954853458816E+01
N    1.8310261059947806E+01    1.7310391588590910E+01   -2.9341109012400715E+01
N    2.0505427316061571E+01    1.8521739925554304E+01   -2.9321770545873573E+01
N    1.8324079673110568E+01    1.9851803612743304E+01   -2.9550798223820529E+01
N    2.0466274707975959E+01    2.1024407532591269E+01   -2.9150908168005738E+01
B    8.1490840947800507E+00    2.2234390685731181E+01   -2.9183653885077774E+01
B    1.0379860538362196E+01    2.3523732525863959E+01   -2.9354004175891330E+01
B    8.2351920377816601E+00    2.4770253061010401E+01   -2.9227081900379421E+01
B    1.0414240608097998E+01    2.6002368079536584E+01   -2.9170043420571634E+01
B    8.1570871458176146E+00    2.7326303369147269E+01   -2.9234859237244908E+01
B    1.0285044856248449E+01    2.8559421357791020E+01   -2.9007000568940807E+01
B    8.1797330552724343E+00    2.9793959409621184E+01   -2.9157294677281307E+01
B    1.0333062190446910E+01    3.1103720065320935E+01   -2.9004172036262879E+01
B    8.2567644489554564E+00    3.2331389311544335E+01   -2.9050276972849836E+01
B    1.0421906287635858E+01    3.3592607737355678E+01   -2.8960607769187252E+01
B    1.2587886672313820E+01    2.2250112020692253E+01   -2.9562374129065322E+01
B    1.4706187769867737E+01    2.3535047405607106E+01   -2.9411754071357109E+01
B    1.2621945624868973E+01    2.4767915703065558E+01   -2.9286251384922011E+01
B    1.4682520457218715E+01    2.6053407037355878E+01   -2.9069123785007715E+01
B    1.2484132346241610E+01    2.7303083901228451E+01   -2.8992838421381823E+01
B    1.4698573659408797E+01    2.8609699954580144E+01   -2.8945655937857300E+01
B    1.2512462611226153E+01    2.9807381037106218E+01   -2.9069764902782794E+01
B    1.4676758902818886E+01    3.1089973908284186E+01   -2.9053197183253658E+01
B    1.2552703113838170E+01    3.2364724101959823E+01   -2.9060627409514588E+01
B    1.4763516628910557E+01    3.3519140273390960E+01   -2.9053354478412199E+01
B    1.6916279205074286E+01    2.2365905723418813E+01   -2.9428388722332787E+01
B    1.9047231933826133E+01    2.3550498430537971E+01   -2.9068120063874591E+01
B    1.6871651360980398E+01    2.4796512332718219E+01   -2.9001503103602420E+01
B    1.9063715329479017E+01    2.6050121439604997E+01   -2.8775166607276745E+01
B    1.6895868931702239E+01    2.7300120526917087E+01   -2.8921754399909478E+01
B    1.9020603945133498E+01    2.8598299347289192E+01   -2.8900742731290432E+01
B    1.6872291839045843E+01    2.9832822737499317E+01   -2.9091131075594827E+01
B    1.9080653808729341E+01    3.1041399095401903E+01   -2.8894175530308623E+01
B    1.6919590456164833E+01    3.2293706063875455E+01   -2.8948356652492613E+01
B    1.9065672724065369E+01    3.3577840283342539E+01   -2.8826396817496196E+01
N    9.6115282617561686E+00    2.2299556262104669E+01   -2.9334136098909056E+01
N    1.1840443174384291E+01    2.3533071196390644E+01   -2.9478382624662036E+01
N    9.6270571173600779E+00    2.4776098588754575E+01   -2.9321996718915692E+01
N    1.1852510525654404E+01    2.6008560404781548E+01   -2.9150439725539364E+01
N    9.6345011951174726E+00    2.7274418897525607E+01   -2.9103010212102838E+01
N    1.1787957323863672E+01    2.8552456366802637E+01   -2.9012685477799103E+01
N    9.5742796084800883E+00    2.9808167529188058E+01   -2.8897949094262611E+01
N    1.1768343106537412E+01    3.1073149928475804E+01   -2.9046815410491011E+01
N    9.6887439331238561E+00    3.2345379677145893E+01   -2.8947100158605146E+01
N    1.1827623370361199E+01    3.3598378162823401E+01   -2.9012512507404008E+01
N    1.3994224777932089E+01    2.2262322743115501E+01   -2.9503195564675259E+01
N    1.6192464386485820E+01    2.3583796136226567E+01   -2.9263157741530211E+01
N    1.4001797814561298E+01    2.4783009617928148E+01   -2.9310436996576925E+01
N    1.6127769035657284E+01    2.6036938643172718E+01   -2.9053324554808558E+01
N    1.3946264120042136E+01    2.7322985206382434E+01   -2.8946326399481872E+01
N    1.6193218503445785E+01    2.8537906705146064E+01   -2.9076019874381842E+01
N    1.3951807069870139E+01    2.9823776506196623E+01   -2.9135018467652927E+01
N    1.6126866422809027E+01    3.1082586367804989E+01   -2.9087736839253179E+01
N    1.3975083294868716E+01    3.2336000060981782E+01   -2.9126899457812275E+01
N    1.6165012961006660E+01    3.3543278346412414E+01   -2.9050272772481733E+01
N    1.8354903024405196E+01    2.2310040937800085E+01   -2.9415378670548940E+01
N    2.0457654427674822E+01    2.3542601608557863E+01   -2.8924678068056213E+01
N    1.8330847123697755E+01    2.4812653740329868E+01   -2.8844861930352700E+01
N    2.0504804224441141E+01    2.6042078380312223E+01   -2.8651730983068347E+01
N    1.8339855037536747E+01    2.7320768586523823E+01   -2.8896079667659706E+01
N    2.0477515579136519E+01    2.8590572588626081E+01   -2.8742620332569590E+01
N    1.8325543439980695E+01    2.9830602856977748E+01   -2.8971433904379531E+01
N    2.0534012148961732E+01    3.1066496719217653E+01   -2.8947685076431348E+01
N    1.8356344737663591E+01    3.2347442386221672E+01   -2.8858853900071235E+01
N    2.0510557189893984E+01    3.3537025837973104E+01   -2.8856142776102715E+01
O    1.7826956952918913E+01    3.9091759404627240E+01   -1.8744795117448721E+01
H    1.8013398334366020E+01    4.0083862125497234E+01   -1.8696653152442845E+01
H    1.6910617967898002E+01    3.9076200884686550E+01   -1.9025723842460145E+01
O    9.1402127048275091E+01    2.0365434146369463E+01   -1.4414250835989135E+01
H    9.1942024132343491E+01    1.9577333895302122E+01   -1.4399779579416585E+01
H    9.0506984290095048E+01    1.9971392111227672E+01   -1.4286823726921476E+01
O    5.3421633814725787E+01    3.2171763873568459E+01   -2.0523838682817043E+01
H    5.2975282120913427E+01    3.1917488959318895E+01   -2.1360742219450504E+01
H    5.2825743174684185E+01    3.1773996905843209E+01   -1.9765859033389813E+01
O    1.4194566218151545E+00   -1.6644238421595379E+01   -1.4598654154066104E+01
H    2.3881605948068922E+00   -1.6770971224530712E+01   -1.4399880048094492E+01
H    1.1887753245239099E+00   -1.6983803394724877E+01   -1.5477994183965967E+01
O    2.0484633856670055E+01   -1.2554962327074296E+01   -2.5602464861455978E+01
H    2.0038762121794225E+01   -1.2863089110843658E+01   -2.4824258283448643E+01
H    1.9772905276621895E+01   -1.2150358125178812E+01   -2.6055676462929952E+01
O    1.8207032910628758E+01   -4.5016465190491232E+01   -2.5910547211467094E+01
H    1.7646337331696703E+01   -4.4924120997061891E+01   -2.5072521207304273E+01
H    1.8577757406639126E+01   -4.5939389593423407E+01   -2.5764360728121680E+01
O    4.9674056320633106E+01   -1.5840754057724153E+00   -1.8917554499658355E+01
H    4.8827078061369079E+01   -1.1384105065995962E+00   -1.9196005009461025E+01
H    4.9910047823911057E+01   -1.1069976279491329E+00   -1.8060795350324362E+01
O   -1.1794737494230084E+01   -1.5489821963898006E+01   -2.4153140018352250E+01
H   -1.1193264824665034E+01   -1.5419974257115729E+01   -2.3394297762207447E+01
H   -1.1881123568250576E+01   -1.4578364329119360E+01   -2.4520009123729601E+01
O    8.8310712951626314E+01   -2.0903797032140961E+01   -2.0260528264194868E+01
H    8.8233774623005075E+01   -2.1231052482241711E+01   -2.1224919497806159E+01
H    8.7380679406339553E+01   -2.0887119037239462E+01   -1.9947321906090377E+01
O    2.0510717876092620E+01    7.2265748236257077E-01   -1.1518138591079593E+01
H    1.9591007309294138E+01    3.8998420944788387E-01   -1.1414506287201897E+01
H    2.0316711605286670E+01    1.5434483854970085E+00   -1.1995558137195319E+01
O    6.9220896634419887E+01   -5.5041972944650141E+01   -1.4721461649033300E+01
H    6.8395678335434951E+01   -5.5539468050759261E+01   -1.4450093910544455E+01
H    6.9373825664855630E+01   -5.5116156876457296E+01   -1.5703857887437403E+01
O   -9.7891614538329357E+00    2.7439148220739899E+01   -2.0041510308561477E+01
H   -9.0550614257387725E+00    2.8033993223461472E+01   -1.9816736369863182E+01
H   -1.0445379445915083E+01    2.8073493678996023E+01   -2.0349868870646969E+01
O    4.3556277916507522E+00   -6.3204927419176762E+01   -2.1970299638757826E+01
H    3.5792202155557522E+00   -6.3231167264476305E+01   -2.1327654085828073E+01
H    5.0081293264430604E+00   -6.2594481799811348E+01   -2.1660497839402456E+01
O    6.0945602447904307E+01   -6.2830197501931480E+00   -1.8797364742109707E+01
H    6.1103417935743501E+01   -7.1935129023460540E+00   -1.8558420232129738E+01
H    5.9973056819304460E+01   -6.1944347420811638E+00   -1.8774845331375136E+01
O    2.2445828788438389E+00    4.1117401330071161E+01   -1.2752039369824693E+01
H    1.3335119254496679E+00    4.0747842297096099E+01   -1.2842833287631240E+01
H    2.0268612350140667E+00    4.2032232710850444E+01   -1.2371751954410415E+01
O   -5.8598412943772393E+00    2.4307297298269020E+01   -2.2896308014947184E+01
H   -5.3797184068773207E+00    2.4347582238074114E+01   -2.2057576520895708E+01
H   -5.3186066159158845E+00    2.4342577389657436E+01   -2.3753642156523096E+01
O    3.5237023731402772E+01    3.5198401349248144E+01   -1.7086941328737257E+01
H    3.5417883520143747E+01    3.5628596545195123E+01   -1.7953011117807012E+01
H    3.6102571796546705E+01    3.5260428145581365E+01   -1.6639527135786111E+01
O    4.1892211781879318E+01   -7.1885642824233349E+00   -1.6703171178917430E+01
H    4.1907964283762432E+01   -6.3465096143972204E+00   -1.7244721826106954E+01
H    4.2330062653461454E+01   -7.7491431895999172E+00   -1.7311930597063288E+01
O    6.1869796809638125E+01   -4.9452962247312314E+01   -2.4340712863569777E+01