 # Version information for this restart file 
 # current date 2020-01-08 20:29:20.354
 # current working dir /scratch/snx3000/gtocci/gtocci/MEMBRANES/AIMD_US_IONS_BN/aimd_us_iodide/us_5
 # Program compiled at                              Fri Nov 22 15:19:42 CET 2019
 # Program compiled on                                                  daint102
 # Program compiled for                                   CRAY_XC50-gfortran_gpu
 # Source code revision number                                       git:a698b45
 &GLOBAL
   PRINT_LEVEL  LOW
   PROJECT_NAME BNS
   RUN_TYPE  MD
   WALLTIME 86400
 &END GLOBAL
 &MOTION
   &MD
     ENSEMBLE  NVT
     STEPS  2000
     TIMESTEP     9.9999999999999989E-01
     STEP_START_VAL  65938
     TIME_START_VAL     6.5937999999952284E+04
     ECONS_START_VAL    -8.4831014831103057E+03
     TEMPERATURE     3.0000000000000000E+02
     TEMP_KIND  T
     &BAROSTAT
       PRESSURE     1.0000000000000000E+00
       TIMECON     9.9999999999999986E+01
       VIRIAL  Z
     &END BAROSTAT
     &THERMOSTAT
       TYPE  NOSE
       REGION  GLOBAL
       &NOSE
         LENGTH  4
         TIMECON     9.9999999999999986E+01
         MTS  2
         &COORD
               3.1949133797004275E-01   -8.7865685339834094E+00    1.5605160375566765E+01    8.4527604259394877E+00
         &END COORD
         &VELOCITY
               3.8730967836539621E-06   -3.3513197787253231E-04   -2.9453299772362157E-04    2.0324883427889809E-05
         &END VELOCITY
         &MASS
               7.0145132684705392E+07    1.6237299232570693E+04    1.6237299232570693E+04    1.6237299232570693E+04
         &END MASS
         &FORCE
              -8.9943957276001725E-10    6.2937821146738077E-09    5.3803428742650410E-08    2.8239672897957790E-08
         &END FORCE
       &END NOSE
     &END THERMOSTAT
     &AVERAGES  T
       &RESTART_AVERAGES
         ITIMES_START  1
         AVECPU     2.4026964020752260E+01
         AVEHUGONIOT     0.0000000000000000E+00
         AVETEMP_BARO     0.0000000000000000E+00
         AVEPOT    -8.4858562748525073E+03
         AVEKIN     2.0528067901030114E+00
         AVETEMP     3.0010386173960705E+02
         AVEKIN_QM     0.0000000000000000E+00
         AVETEMP_QM     0.0000000000000000E+00
         AVEVOL     2.2086622704881031E+05
         AVECELL_A     4.9287836997924991E+01
         AVECELL_B     4.7426456757041819E+01
         AVECELL_C     9.4486306644281342E+01
         AVEALPHA     9.0000000000000000E+01
         AVEBETA     9.0000000000000000E+01
         AVEGAMMA     9.0000000000000000E+01
         AVE_ECONS     4.9877288004452389E+01
         AVE_PRESS     0.0000000000000000E+00
         AVE_PXX     0.0000000000000000E+00
       &END RESTART_AVERAGES
     &END AVERAGES
     &PRINT
       &TEMP_KIND  SILENT
       &END TEMP_KIND
     &END PRINT
   &END MD
   &FREE_ENERGY
     &METADYN
       MIN_DISP    -1.0000000000000000E+00
       OLD_HILL_NUMBER  0
       OLD_HILL_STEP  0
       DO_HILLS  F
       STEP_START_VAL  65938
       NHILLS_START_VAL  0
       &METAVAR
         SCALE     1.0000000000000000E+00
         COLVAR  1
       &END METAVAR
       &PRINT
         &COLVAR  SILENT
           COMMON_ITERATION_LEVELS  3
           &EACH
             MD  1
           &END EACH
         &END COLVAR
       &END PRINT
     &END METADYN
   &END FREE_ENERGY
   &CONSTRAINT
     &COLLECTIVE
       COLVAR  1
       INTERMOLECULAR  T
       &RESTRAINT
         K     4.4625385281452931E-04
       &END RESTRAINT
     &END COLLECTIVE
     &COLVAR_RESTART
           4.9466490761663291E+00
     &END COLVAR_RESTART
   &END CONSTRAINT
   &PRINT
     &TRAJECTORY  SILENT
       &EACH
         MD  1
       &END EACH
     &END TRAJECTORY
     &VELOCITIES  SILENT
       &EACH
         MD  1
       &END EACH
     &END VELOCITIES
     &FORCES  SILENT
       UNIT eV*angstrom^-1
       &EACH
         MD  1
       &END EACH
     &END FORCES
     &RESTART  SILENT
       &EACH
         MD  1
       &END EACH
     &END RESTART
     &RESTART_HISTORY  SILENT
       &EACH
         MD  100
       &END EACH
     &END RESTART_HISTORY
   &END PRINT
 &END MOTION
 &FORCE_EVAL
   METHOD  QS
   &DFT
     BASIS_SET_FILE_NAME /users/gtocci/scratch_daint_3000/data_cp2k//BASIS_MOLOPT
     POTENTIAL_FILE_NAME /users/gtocci/scratch_daint_3000/data_cp2k//GTH_POTENTIALS
     WFN_RESTART_FILE_NAME ./BNS-RESTART.wfn
     CHARGE  -1
     &SCF
       MAX_SCF  10
       EPS_SCF     9.9999999999999995E-07
       SCF_GUESS  RESTART
       &OT  T
         MINIMIZER  DIIS
         PRECONDITIONER  FULL_KINETIC
       &END OT
       &OUTER_SCF  T
         EPS_SCF     9.9999999999999995E-07
         MAX_SCF  30
       &END OUTER_SCF
       &PRINT
         &RESTART  SILENT
           ADD_LAST  NUMERIC
           &EACH
             QS_SCF  50
           &END EACH
         &END RESTART
       &END PRINT
     &END SCF
     &QS
       MAP_CONSISTENT  T
       EXTRAPOLATION  ASPC
       EXTRAPOLATION_ORDER  4
     &END QS
     &MGRID
       NGRIDS  5
       CUTOFF     4.6000000000000000E+02
     &END MGRID
     &XC
       DENSITY_CUTOFF     1.0000000000000000E-10
       GRADIENT_CUTOFF     1.0000000000000000E-10
       TAU_CUTOFF     1.0000000000000000E-10
       &XC_GRID
         XC_DERIV  SPLINE2_SMOOTH
       &END XC_GRID
       &XC_FUNCTIONAL  NO_SHORTCUT
         &LIBXC  T
           FUNCTIONAL XC_GGA_X_OPTB88_VDW
         &END LIBXC
         &VWN  T
         &END VWN
       &END XC_FUNCTIONAL
       &VDW_POTENTIAL
         POTENTIAL_TYPE  NON_LOCAL
         &NON_LOCAL
           TYPE  DRSLL
           VERBOSE_OUTPUT  T
           KERNEL_FILE_NAME /users/gtocci/scratch_daint_3000/data_cp2k//vdW_kernel_table.dat
           CUTOFF     3.6000000000000000E+02
         &END NON_LOCAL
       &END VDW_POTENTIAL
     &END XC
     &REAL_TIME_PROPAGATION
       INITIAL_WFN  SCF_WFN
     &END REAL_TIME_PROPAGATION
     &PRINT
       &MULLIKEN  SILENT
         FILENAME =BNS.mulliken
       &END MULLIKEN
     &END PRINT
   &END DFT
   &SUBSYS
     &CELL
       A     2.6082000000000019E+01    0.0000000000000000E+00    0.0000000000000000E+00
       B     0.0000000000000000E+00    2.5097000000000001E+01    0.0000000000000000E+00
       C     0.0000000000000000E+00    0.0000000000000000E+00    5.0000000000000028E+01
       MULTIPLE_UNIT_CELL  1 1 1
     &END CELL
     &COORD
B   -1.2909898524461168E+01    1.0634525098206160E+01   -6.4529239632161236E+01
B   -1.0744714973424511E+01    1.1901864155109859E+01   -6.4523665841815500E+01
B   -1.2930174136972951E+01    1.3145413907654325E+01   -6.4501814095280551E+01
B   -1.0743594380263239E+01    1.4396176537077180E+01   -6.4473299912130514E+01
B   -1.2959540792551866E+01    1.5649598034809639E+01   -6.4520016250848386E+01
B   -1.0778344295642736E+01    1.6890845920014783E+01   -6.4364955747214481E+01
B   -1.2912624902791800E+01    1.8180690588064095E+01   -6.4443681464492101E+01
B   -1.0757203283922919E+01    1.9396317954743260E+01   -6.4447147319705934E+01
B   -1.2934633428004505E+01    2.0695304575698167E+01   -6.4735204084147838E+01
B   -1.0719578877645622E+01    2.1915809573610062E+01   -6.4828810668373890E+01
B   -8.6080719173237181E+00    1.0656083369495125E+01   -6.4814087673416466E+01
B   -6.3865769698515074E+00    1.1911109692272147E+01   -6.4978180198872892E+01
B   -8.5274770872081636E+00    1.3155472224926960E+01   -6.4508845575796343E+01
B   -6.3610791101286646E+00    1.4438170488568140E+01   -6.4628895354233521E+01
B   -8.5339926005397242E+00    1.5619757812888489E+01   -6.4431833552951005E+01
B   -6.3395557374109703E+00    1.6921220362206874E+01   -6.4479085919682944E+01
B   -8.5724604333290575E+00    1.8131408610382458E+01   -6.4391660749224528E+01
B   -6.4048364159265656E+00    1.9377107031014887E+01   -6.4520989939705657E+01
B   -8.5903444082082192E+00    2.0717489345785413E+01   -6.4594096509472152E+01
B   -6.4050298370931111E+00    2.1882362790984882E+01   -6.4750386857352211E+01
B   -4.2417293062549213E+00    1.0666804048798946E+01   -6.5159961451977495E+01
B   -2.0275009184184425E+00    1.1871627302308340E+01   -6.5111568119363071E+01
B   -4.2391068782956305E+00    1.3199438310771820E+01   -6.5037259205855790E+01
B   -2.0193179329010253E+00    1.4387351025134707E+01   -6.4978582334289513E+01
B   -4.1754381315003517E+00    1.5713158721347792E+01   -6.4711140512750220E+01
B   -2.0094695668572822E+00    1.6974643809196305E+01   -6.4860581018245085E+01
B   -4.1801279947731329E+00    1.8191079438059194E+01   -6.4662415998718330E+01
B   -1.9672935626781252E+00    1.9476102377713641E+01   -6.4907846967047078E+01
B   -4.2383445533480684E+00    2.0648384145258571E+01   -6.4852783345191114E+01
B   -2.0512296278456255E+00    2.1877747556564991E+01   -6.4803142812883848E+01
N   -1.1419313885526806E+01    1.0639440501638724E+01   -6.4578310050211115E+01
N   -9.2708848746238708E+00    1.1912109904963494E+01   -6.4544359588512322E+01
N   -1.1464349614005380E+01    1.3164690785457680E+01   -6.4562079449893190E+01
N   -9.2822191715425841E+00    1.4392003617744919E+01   -6.4427434356872453E+01
N   -1.1516688195242994E+01    1.5633887371735327E+01   -6.4461601576320419E+01
N   -9.3026574806670457E+00    1.6863987758836185E+01   -6.4382563975613934E+01
N   -1.1497105503160359E+01    1.8190444825837147E+01   -6.4428222658624705E+01
N   -9.2991337501185303E+00    1.9454148542098217E+01   -6.4386969866911286E+01
N   -1.1464403467354467E+01    2.0628485242914717E+01   -6.4795304714385580E+01
N   -9.2660443931590724E+00    2.1942940107886198E+01   -6.4798100967927013E+01
N   -7.1072546115665745E+00    1.0701851445528169E+01   -6.4844963178145576E+01
N   -4.9228499528087148E+00    1.1910868834327747E+01   -6.5142013728614202E+01
N   -7.0740482144101406E+00    1.3201721863210169E+01   -6.4684828816722003E+01
N   -4.9099745464786322E+00    1.4458670291643861E+01   -6.4848518924140961E+01
N   -7.1004521017419560E+00    1.5677400030681566E+01   -6.4460701048676952E+01
N   -4.8683721451423470E+00    1.6950781074935662E+01   -6.4550156088154154E+01
N   -7.1325504885527256E+00    1.8105080469097150E+01   -6.4387009423128774E+01
N   -4.9722677872508614E+00    1.9395847984000312E+01   -6.4647050113326529E+01
N   -7.1475027615440201E+00    2.0660455884623193E+01   -6.4639263755083263E+01
N   -4.9409351911467168E+00    2.1894249878271239E+01   -6.4841513864950684E+01
N   -2.7660131223101039E+00    1.0647206418068764E+01   -6.5141297808122644E+01
N   -5.8458268605006602E-01    1.1887644427596083E+01   -6.4934648255405222E+01
N   -2.7320890704952157E+00    1.3135990417627953E+01   -6.5135645114785206E+01
N   -5.6392306154197469E-01    1.4414881528028831E+01   -6.4889049131318330E+01
N   -2.7411894759183011E+00    1.5672278592287494E+01   -6.4786026995062784E+01
N   -5.5921581540686660E-01    1.6929605124913632E+01   -6.4991132443997216E+01
N   -2.7452489522041175E+00    1.8215847554607855E+01   -6.4839894115489926E+01
N   -5.5962301931870284E-01    1.9466679664364257E+01   -6.5018259188860497E+01
N   -2.8003351473372229E+00    2.0666858105033590E+01   -6.4868441182208684E+01
N   -5.9890797762929526E-01    2.1875235921130741E+01   -6.4654350753774807E+01
B   -1.2889163003237861E+01    2.3151683448605436E+01   -6.4810189351315657E+01
B   -1.0731782609691232E+01    2.4414329336331612E+01   -6.4867300063734035E+01
B   -1.2893748491867385E+01    2.5616001149577230E+01   -6.4751318008322016E+01
B   -1.0769391031150899E+01    2.6960133075988850E+01   -6.4817060888583441E+01
B   -1.2959665746438054E+01    2.8136169601612039E+01   -6.4426919642035486E+01
B   -1.0807287123852591E+01    2.9454358907613329E+01   -6.4411181812679189E+01
B   -1.2905268752710699E+01    3.0735565204939252E+01   -6.4150352355780910E+01
B   -1.0724167679807120E+01    3.2009167698095581E+01   -6.4353132665636181E+01
B   -1.2881336975805045E+01    3.3203801603122784E+01   -6.4294695447296689E+01
B   -1.0768378287857860E+01    3.4506150416074234E+01   -6.4584104061990786E+01
B   -8.5487359738937485E+00    2.3197842855416450E+01   -6.4913662541023314E+01
B   -6.4347392759917126E+00    2.4459234058901512E+01   -6.4907804984605036E+01
B   -8.5984980753586164E+00    2.5687897621855647E+01   -6.4979030416126875E+01
B   -6.3761262741610976E+00    2.6982766103306737E+01   -6.4979334847873318E+01
B   -8.5824515066890985E+00    2.8235446613569554E+01   -6.4848528677757002E+01
B   -6.3979805687704427E+00    2.9477891036181724E+01   -6.4725738691451213E+01
B   -8.5705012545730561E+00    3.0742272468518173E+01   -6.4565609443472937E+01
B   -6.3569857591861636E+00    3.2013991575515242E+01   -6.4769588975352377E+01
B   -8.5933027716174930E+00    3.3262432003876675E+01   -6.4691001695720260E+01
B   -6.4020179918158773E+00    3.4542639458867697E+01   -6.4873431120541525E+01
B   -4.2500579594941295E+00    2.3156411981641913E+01   -6.4732359589842190E+01
B   -2.0599927738222950E+00    2.4436394585381265E+01   -6.4518418758373826E+01
B   -4.2526651551754098E+00    2.5726126790229891E+01   -6.4721560224919173E+01
B   -2.0431903853772253E+00    2.6967587631539779E+01   -6.4535993249513368E+01
B   -4.1892259183748166E+00    2.8214599013056340E+01   -6.4734913398500439E+01
B   -2.1021383895013859E+00    2.9486384199312070E+01   -6.4661093307046144E+01
B   -4.1900765623022016E+00    3.0750397780025491E+01   -6.4778459612738715E+01
B   -2.0684129852931927E+00    3.2018055209995453E+01   -6.4803522957801306E+01
B   -4.1884288132075964E+00    3.3279681134845035E+01   -6.4951237391099610E+01
B   -2.0478620870160258E+00    3.4484083858381361E+01   -6.4910752284854482E+01
N   -1.1432051948005340E+01    2.3155561035443998E+01   -6.5039557027158025E+01
N   -9.3139340261053114E+00    2.4422157535509125E+01   -6.4912919338642794E+01
N   -1.1453588170584153E+01    2.5670331790066601E+01   -6.4840942552845107E+01
N   -9.3071094880533707E+00    2.6974281079862802E+01   -6.4957464547407469E+01
N   -1.1449824859814401E+01    2.8170333859754205E+01   -6.4453007779609081E+01
N   -9.2962332688701359E+00    2.9476261263176387E+01   -6.4583764232876462E+01
N   -1.1430799626395297E+01    3.0719807292524592E+01   -6.4198027000404124E+01
N   -9.2784759399521999E+00    3.2027982634666515E+01   -6.4512032617388627E+01
N   -1.1460516355259916E+01    3.3205121548333736E+01   -6.4448256575064462E+01
N   -9.3030940937453686E+00    3.4494465693796030E+01   -6.4726291144623261E+01
N   -7.1213938392397864E+00    2.3161782686889648E+01   -6.4921897660352442E+01
N   -5.0144604751695292E+00    2.4442752859506907E+01   -6.4671067044331750E+01
N   -7.1332772049793274E+00    2.5765101168932990E+01   -6.5067075828107804E+01
N   -4.9468404465070224E+00    2.7004698541123595E+01   -6.4860409949551254E+01
N   -7.1319864993493143E+00    2.8221970861609183E+01   -6.4782191849820222E+01
N   -4.9257141674296694E+00    2.9501312321828546E+01   -6.4758988768050486E+01
N   -7.1178609621788524E+00    3.0765734353433871E+01   -6.4751974751646856E+01
N   -4.8969174105562674E+00    3.2014985026858511E+01   -6.4790530677671796E+01
N   -7.1616601651576524E+00    3.3258535843666792E+01   -6.4738542403858645E+01
N   -4.9831031940884527E+00    3.4519270091655535E+01   -6.5035314804180501E+01
N   -2.7908205804417543E+00    2.3165557379942754E+01   -6.4748714172844174E+01
N   -6.4086187314447118E-01    2.4408345698474161E+01   -6.4713592745450427E+01
N   -2.7986098319967727E+00    2.5669917759968364E+01   -6.4512802805968320E+01
N   -6.0705980497292999E-01    2.6950371742935097E+01   -6.4507875013055639E+01
N   -2.7872312194264470E+00    2.8202465218655806E+01   -6.4636088063587181E+01
N   -6.0686508149151264E-01    2.9491480632094884E+01   -6.4662381704842701E+01
N   -2.7665583882479856E+00    3.0744640803960390E+01   -6.4841068406824775E+01
N   -6.3743546522525885E-01    3.1988021177954820E+01   -6.4825756280489216E+01
N   -2.7487350449072099E+00    3.3222411794802525E+01   -6.4849415682699927E+01
N   -5.8967518728845769E-01    3.4476513100529900E+01   -6.4839069193877563E+01
B    1.4826798788206150E-01    1.0643811023767295E+01   -6.4822541999210614E+01
B    2.2711091857213535E+00    1.1864286223394192E+01   -6.4678928901572945E+01
B    1.1829353503169771E-01    1.3166648335936886E+01   -6.4909869373624502E+01
B    2.2996624381032649E+00    1.4347690992905926E+01   -6.4693713012931511E+01
B    1.6383366282282086E-01    1.5677501813609698E+01   -6.4887087115720760E+01
B    2.3035654600981110E+00    1.6891769174986063E+01   -6.4911213965369996E+01
B    1.8121002714743617E-01    1.8175038490806052E+01   -6.5102215849836995E+01
B    2.3772588854563566E+00    1.9407264042575274E+01   -6.4922761568138611E+01
B    1.4896068575984298E-01    2.0658078977033057E+01   -6.4897643466208876E+01
B    2.3369821286761292E+00    2.1907550675550944E+01   -6.4940270444077498E+01
B    4.4447971268389743E+00    1.0660714674528226E+01   -6.4546403895319472E+01
B    6.6556168175607953E+00    1.1887689220048260E+01   -6.4554490369059451E+01
B    4.4863917367989670E+00    1.3138668786242018E+01   -6.4505658135816375E+01
B    6.6633021502663849E+00    1.4414034382143477E+01   -6.4503672921820964E+01
B    4.4941870949383933E+00    1.5593916570207561E+01   -6.4545031065107949E+01
B    6.6377946719570140E+00    1.6922807162385428E+01   -6.4555777082563452E+01
B    4.4919008096698487E+00    1.8130386049303642E+01   -6.4749238402766736E+01
B    6.6315176187803910E+00    1.9420467895754236E+01   -6.4680965196908062E+01
B    4.5317566693716032E+00    2.0645851750713543E+01   -6.4878883706179138E+01
B    6.6523288018268341E+00    2.1907255853480187E+01   -6.5000374262180188E+01
B    8.8167930782453752E+00    1.0674843964820292E+01   -6.4512841713607784E+01
B    1.0995187084100676E+01    1.1856791781015261E+01   -6.4718039201625075E+01
B    8.8574623453079244E+00    1.3115699535809366E+01   -6.4652581310659656E+01
B    1.0994695862985612E+01    1.4365094630356294E+01   -6.4634646868763156E+01
B    8.8065861897833528E+00    1.5667588826667789E+01   -6.4538497162686681E+01
B    1.0972165456584159E+01    1.6920337337791750E+01   -6.4561741582612413E+01
B    8.8093398890032208E+00    1.8151707499991652E+01   -6.4583447641756649E+01
B    1.0990982902867581E+01    1.9385427015703822E+01   -6.4697527836008277E+01
B    8.8615731869562069E+00    2.0664625478911375E+01   -6.4805367462703344E+01
B    1.0990603698572132E+01    2.1871229058651455E+01   -6.4820341436386030E+01
N    1.6389453189179215E+00    1.0617449008778591E+01   -6.4659833903068062E+01
N    3.7025409992157723E+00    1.1897178352346110E+01   -6.4569176960081734E+01
N    1.5400987369949948E+00    1.3137581522379866E+01   -6.4767974130986090E+01
N    3.7038486757834339E+00    1.4357937572210020E+01   -6.4511139805815631E+01
N    1.5910228258617265E+00    1.5656570784451862E+01   -6.4830888149445499E+01
N    3.7845540050438915E+00    1.6864023554083495E+01   -6.4836688009301056E+01
N    1.6078210313331658E+00    1.8151278524111223E+01   -6.5041423889112167E+01
N    3.8315404172659062E+00    1.9402651265689681E+01   -6.4907253119505626E+01
N    1.6163270623245187E+00    2.0643435941783881E+01   -6.4974762415133043E+01
N    3.7661642193238514E+00    2.1899475801486748E+01   -6.5027673838359831E+01
N    5.8817417059634964E+00    1.0638793613336722E+01   -6.4528741949591776E+01
N    8.0989553069835800E+00    1.1925819656904578E+01   -6.4520757237259801E+01
N    5.9137955501495547E+00    1.3123146754803056E+01   -6.4598294491707833E+01
N    8.1253802982657319E+00    1.4385636442087165E+01   -6.4511364807537063E+01
N    5.9391327319112923E+00    1.5609450974430137E+01   -6.4488794190703302E+01
N    8.0681511440681621E+00    1.6926820285119632E+01   -6.4575193640723000E+01
N    5.8867381507700847E+00    1.8152405300251033E+01   -6.4540931313546935E+01
N    8.0818638660375246E+00    1.9461612137248334E+01   -6.4701661473227105E+01
N    5.9478947886910758E+00    2.0650977160558373E+01   -6.4818281401602789E+01
N    8.1187856941040835E+00    2.1924994076128183E+01   -6.4907439767213646E+01
N    1.0265669093593210E+01    1.0616971115228068E+01   -6.4584924451052345E+01
N    1.2438429175961272E+01    1.1874955846941983E+01   -6.4591782280178862E+01
N    1.0309093895640739E+01    1.3115618856327972E+01   -6.4804308897345791E+01
N    1.2435708821724429E+01    1.4375959683251573E+01   -6.4501378562229533E+01
N    1.0239513993049135E+01    1.5650514867345722E+01   -6.4498087444726920E+01
N    1.2448525276310733E+01    1.6955000542764601E+01   -6.4620312517384235E+01
N    1.0241115898020380E+01    1.8152587269390725E+01   -6.4670706042281481E+01
N    1.2409633594784166E+01    1.9457345790397078E+01   -6.4577395990612459E+01
N    1.0300157554760412E+01    2.0627000064580411E+01   -6.4867440717440076E+01
N    1.2451770961789885E+01    2.1923564772240624E+01   -6.4799302186376309E+01
B    1.0896366460915781E-01    2.3110083722188058E+01   -6.4806975320715040E+01
B    2.2655808667458661E+00    2.4457362042199545E+01   -6.4995891513906074E+01
B    1.0727134777849150E-01    2.5686394859618883E+01   -6.4709769104731478E+01
B    2.3197559112953550E+00    2.6998810291333523E+01   -6.4732511454103744E+01
B    8.4282624589030880E-02    2.8199013590854378E+01   -6.4583621054379947E+01
B    2.2822072633356205E+00    2.9490850784973762E+01   -6.4693578871491653E+01
B    9.9936898171261987E-02    3.0757931272810602E+01   -6.4736902043398743E+01
B    2.3613679314952005E+00    3.1973966963251431E+01   -6.4650742465010666E+01
B    1.7719584363527441E-01    3.3191436147440839E+01   -6.4691345854318456E+01
B    2.3634032823259163E+00    3.4447238563194979E+01   -6.4633069997011944E+01
B    4.4560124209539991E+00    2.3196605902926645E+01   -6.4996781094394819E+01
B    6.6940256993165930E+00    2.4397797362152247E+01   -6.4680303756098795E+01
B    4.5548530508641205E+00    2.5758219822288360E+01   -6.4804075939036380E+01
B    6.6953030999554377E+00    2.6973747816075075E+01   -6.4460847429715670E+01
B    4.4914260071328425E+00    2.8222177416124033E+01   -6.4490717341397698E+01
B    6.6801233836571861E+00    2.9431355262052090E+01   -6.4246113342836907E+01
B    4.5055849005665030E+00    3.0720699845869611E+01   -6.4448813438403221E+01
B    6.6848993226189455E+00    3.1935112045796799E+01   -6.4345006447689371E+01
B    4.5512140564434889E+00    3.3239432776693079E+01   -6.4455543796217157E+01
B    6.6260140999962172E+00    3.4510845516347430E+01   -6.4316746690220825E+01
B    8.8681068004494978E+00    2.3189377527900664E+01   -6.4829090734576369E+01
B    1.1067997567235540E+01    2.4400426342599026E+01   -6.4664106813925187E+01
B    8.8518701234325494E+00    2.5685227591332431E+01   -6.4564083037000941E+01
B    1.1006708454312347E+01    2.6902172986592014E+01   -6.4460876247924872E+01
B    8.8161930874272159E+00    2.8182973903032572E+01   -6.4267521665200675E+01
B    1.1004465481959484E+01    2.9516001417882986E+01   -6.4180874751174088E+01
B    8.8385094777546218E+00    3.0722459305425730E+01   -6.4283834477431796E+01
B    1.1007709780068527E+01    3.2002112714722685E+01   -6.4155392075431038E+01
B    8.8095234342974340E+00    3.3214204523922675E+01   -6.4300665417202765E+01
B    1.1015467166570479E+01    3.4473227923383753E+01   -6.4287920270122754E+01
N    1.5507709723855350E+00    2.3168462593373864E+01   -6.4927042072390378E+01
N    3.7391710927290256E+00    2.4454070402671846E+01   -6.4996229159318517E+01
N    1.5643431778562238E+00    2.5705817363857410E+01   -6.4732367749566606E+01
N    3.7804325059015569E+00    2.6967521025640021E+01   -6.4750794360114682E+01
N    1.5361704290599063E+00    2.8240977810153126E+01   -6.4712016307138839E+01
N    3.7698145640165981E+00    2.9465866391398905E+01   -6.4558058203740487E+01
N    1.5876030673376127E+00    3.0750743399170261E+01   -6.4711051873785351E+01
N    3.7871698496643007E+00    3.2004220303940713E+01   -6.4531524438607434E+01
N    1.6384687595448737E+00    3.3211344268683874E+01   -6.4657066176547914E+01
N    3.8390382049316125E+00    3.4486523991895453E+01   -6.4620932832419896E+01
N    5.9079036906116080E+00    2.3196124417298034E+01   -6.4921100563838777E+01
N    8.1195484607355137E+00    2.4450901315051226E+01   -6.4795378170211478E+01
N    5.9570687937321916E+00    2.5658976583733402E+01   -6.4586923295882059E+01
N    8.1187583050438139E+00    2.6920786393350259E+01   -6.4403196861019296E+01
N    5.9254261961303270E+00    2.8182673767886570E+01   -6.4406178173437567E+01
N    8.1012804672376220E+00    2.9439989138485949E+01   -6.4209152976057652E+01
N    5.9857600915129137E+00    3.0680512554501821E+01   -6.4232047053245481E+01
N    8.1041546797387323E+00    3.1946414713560163E+01   -6.4341668542853782E+01
N    6.0106197727969688E+00    3.3208068650054500E+01   -6.4250600621153225E+01
N    8.0857331567330863E+00    3.4527568222827128E+01   -6.4320763934820107E+01
N    1.0305757939867119E+01    2.3143174367563788E+01   -6.4752260265235634E+01
N    1.2462634420905426E+01    2.4415258086861062E+01   -6.4814195624862379E+01
N    1.0280621047404880E+01    2.5660145174261139E+01   -6.4520848587087542E+01
N    1.2425559023955588E+01    2.6864360405090459E+01   -6.4589333395085205E+01
N    1.0261763692345209E+01    2.8201939499087576E+01   -6.4309059321028784E+01
N    1.2460858947283720E+01    2.9450306270262441E+01   -6.4082403932798826E+01
N    1.0253992949495254E+01    3.0742599801797159E+01   -6.4274602325963059E+01
N    1.2466227469382209E+01    3.1964594526158262E+01   -6.4246161554120135E+01
N    1.0250615334647916E+01    3.3195129122378844E+01   -6.4235048185034231E+01
N    1.2465329124898826E+01    3.4504213383410040E+01   -6.4375719571340653E+01
O   -3.3199947326743484E+01   -2.3142342569842089E+00   -4.6930541485164419E+01
H   -3.2387513812384306E+01   -2.7297324758130501E+00   -4.7255366001838645E+01
H   -3.2849062590938466E+01   -1.6005902543517609E+00   -4.6286684552523262E+01
O    2.1590423479644624E+01   -1.7713918755032033E+01   -5.5703080383214427E+01
H    2.1490439478173087E+01   -1.6757580913530038E+01   -5.5530874079894474E+01
H    2.2271931583766651E+01   -1.7899362705513393E+01   -5.6474503543765749E+01
O    2.9140786316631129E+01   -1.1070162881795174E+01   -5.2763908697607462E+01
H    2.8194642746724224E+01   -1.0931606792560970E+01   -5.2562007514322445E+01
H    2.9177363461003583E+01   -1.1281568459343980E+01   -5.3737717470791409E+01
O   -1.5004291152881123E+01   -2.5181030184135365E+00   -6.1042219037340480E+01
H   -1.5641650940552269E+01   -1.9731402986880409E+00   -6.1631482586518430E+01
H   -1.4066550873230094E+01   -2.4390011388912090E+00   -6.1473293954190190E+01
O    3.2743830683277288E+01   -3.2408657361120369E+01   -5.0767993624930966E+01
H    3.2302871552568746E+01   -3.2950377413855527E+01   -5.0086429372258529E+01
H    3.2027695858695978E+01   -3.1949445845261167E+01   -5.1264135114678965E+01
O    9.3277343423995198E+00   -9.7899209088558749E+01   -5.6756183912588689E+01
H    8.4948742832761681E+00   -9.8411130358757930E+01   -5.6775208389208842E+01
H    9.3971209796908095E+00   -9.7372415742239866E+01   -5.7640580144479998E+01
O    1.2032301006444085E+01   -2.7024718098718690E+01   -4.7485875408390271E+01
H    1.1703679201368512E+01   -2.6066859282305689E+01   -4.7647814892594809E+01
H    1.1294726846792326E+01   -2.7575889136449707E+01   -4.7068381381134820E+01
O   -5.1224114327010035E+00    4.5238423114634251E+01   -4.9763156847372983E+01
H   -6.0391721594575722E+00    4.5124359333553464E+01   -5.0129300891441694E+01
H   -4.5542009814571598E+00    4.5436957826457139E+01   -5.0546690925043507E+01
O    3.0480487765198795E+01    1.6000200223600192E+01   -4.7045826389923860E+01
H    3.0813711051750332E+01    1.6713178308592902E+01   -4.6502127264627994E+01
H    3.1338751109871325E+01    1.5691853963521728E+01   -4.7425424786263399E+01
O   -5.5798574858389550E+01   -4.5898689811869062E+01   -4.8325335119033170E+01
H   -5.5006796617736185E+01   -4.5331062040736413E+01   -4.8354900947377288E+01
H   -5.5730838146733866E+01   -4.6265591762349786E+01   -4.9223085924300101E+01
O   -5.7513690882006557E+01    3.4524936226180847E+00   -6.1557250665918367E+01
H   -5.8364455991958991E+01    3.9835327933869844E+00   -6.1748613808576231E+01
H   -5.7404417139927617E+01    3.5567170139490201E+00   -6.0596456814192670E+01
O   -1.4845555489660418E+01    8.4369400233983551E+00   -5.8457572556016203E+01
H   -1.3907656454186981E+01    8.3592244033908489E+00   -5.8165205905520786E+01
H   -1.5342210091081879E+01    7.6385546591325202E+00   -5.8230227858688885E+01
O    4.6807038845954786E+01   -2.4194839682978749E+01   -5.4716901688097060E+01
H    4.7783289202015268E+01   -2.4058785084440995E+01   -5.4540260692871165E+01
H    4.6548368438080665E+01   -2.3795505451447720E+01   -5.5623010728738471E+01
O   -1.6175144187394395E+01   -2.6441938654290396E+01   -5.0439619968613627E+01
H   -1.5442056914872479E+01   -2.6863199608194702E+01   -5.0938547397734865E+01
H   -1.5786632067656248E+01   -2.5749780605947219E+01   -4.9912047523168077E+01
O   -2.7012860384601332E+01   -6.4579910069921553E+01   -5.6303354256808554E+01
H   -2.6899770791673912E+01   -6.4031137802630084E+01   -5.5539025268233715E+01
H   -2.6623953264122566E+01   -6.4169964090400669E+01   -5.7062343775130415E+01
O    3.7138786076602514E+01   -2.4816087724134285E+01   -4.8523008928355573E+01
H    3.7606239653515544E+01   -2.3972232364812886E+01   -4.8640855245761209E+01
H    3.6207595998733559E+01   -2.4601727425278071E+01   -4.8185069601202841E+01
O    3.2600817634389556E+00   -2.4882775965867854E+01   -5.7445222757324032E+01
H    3.2754960444433272E+00   -2.5317469298904015E+01   -5.6520110977791632E+01
H    4.2591178417198288E+00   -2.4929071612155827E+01   -5.7772452719319645E+01
O   -3.8834527974575643E+01   -7.3409692281136799E+01   -5.6040249577234420E+01
H   -3.9529471849374985E+01   -7.4073743959067187E+01   -5.6225482994145374E+01
H   -3.9134507285731175E+01   -7.2841547877008367E+01   -5.5247931065263245E+01
O   -1.9706158029986849E+01   -3.1740635317902314E+01   -5.4725920310749004E+01