 # Version information for this restart file 
 # current date 2019-01-28 11:14:14.804
 # current working dir /scratch/snx3000/gtocci/gtocci/MEMBRANES/AIMD_US_IONS_GRA/potassium/aimd_us_pot/us_16
 # Program compiled at                             Thu Oct 11 21:49:41 CEST 2018
 # Program compiled on                                                  daint104
 # Program compiled for                                   CRAY_XC50-gfortran_gpu
 # Source code revision number                                     git:be74c20a5
 &GLOBAL
   PRINT_LEVEL  LOW
   PROJECT_NAME GRAS
   RUN_TYPE  MD
   WALLTIME 10200
 &END GLOBAL
 &MOTION
   &MD
     ENSEMBLE  NVT
     STEPS  100000
     TIMESTEP     9.9999999999999989E-01
     STEP_START_VAL  40779
     TIME_START_VAL     4.0778999999990716E+04
     ECONS_START_VAL    -8.3206105299910741E+03
     TEMPERATURE     3.0000000000000000E+02
     TEMP_KIND  T
     &BAROSTAT
       PRESSURE     1.0000000000000000E+00
       TIMECON     9.9999999999999986E+01
       VIRIAL  Z
     &END BAROSTAT
     &THERMOSTAT
       TYPE  NOSE
       REGION  GLOBAL
       &NOSE
         LENGTH  4
         TIMECON     9.9999999999999986E+01
         MTS  2
         &COORD
               1.4697961696443243E-01    1.8309564449350503E+01   -2.1367046727348891E+00   -6.0224983417037485E+00
         &END COORD
         &VELOCITY
              -2.7131966012473471E-06    1.0016885663341768E-04   -3.1361601231990672E-04   -4.2923519449081796E-04
         &END VELOCITY
         &MASS
               7.0145132684705392E+07    1.6237299232570693E+04    1.6237299232570693E+04    1.6237299232570693E+04
         &END MASS
         &FORCE
              -1.1960275903340030E-09   -2.6708611206977999E-08   -4.8476214010858882E-08    3.9844989333334812E-08
         &END FORCE
       &END NOSE
     &END THERMOSTAT
     &AVERAGES  T
       &RESTART_AVERAGES
         ITIMES_START  1
         AVECPU     4.6446238731567185E+01
         AVEHUGONIOT     0.0000000000000000E+00
         AVETEMP_BARO     0.0000000000000000E+00
         AVEPOT    -8.3232564067144122E+03
         AVEKIN     2.0521226966147421E+00
         AVETEMP     3.0000385276720294E+02
         AVEKIN_QM     0.0000000000000000E+00
         AVETEMP_QM     0.0000000000000000E+00
         AVEVOL     2.1331414786628092E+05
         AVECELL_A     4.8437460238125489E+01
         AVECELL_B     4.6608961231944654E+01
         AVECELL_C     9.4486306644279495E+01
         AVEALPHA     9.0000000000000057E+01
         AVEBETA     9.0000000000000057E+01
         AVEGAMMA     9.0000000000000057E+01
         AVE_ECONS    -1.8990316696263672E+00
         AVE_PRESS     0.0000000000000000E+00
         AVE_PXX     0.0000000000000000E+00
       &END RESTART_AVERAGES
     &END AVERAGES
     &PRINT
       &TEMP_KIND  SILENT
       &END TEMP_KIND
     &END PRINT
   &END MD
   &FREE_ENERGY
     &METADYN
       MIN_DISP    -1.0000000000000000E+00
       OLD_HILL_NUMBER  0
       OLD_HILL_STEP  0
       DO_HILLS  F
       STEP_START_VAL  40779
       NHILLS_START_VAL  0
       &METAVAR
         SCALE     1.0000000000000000E+00
         COLVAR  1
       &END METAVAR
       &PRINT
         &COLVAR  SILENT
           COMMON_ITERATION_LEVELS  3
           &EACH
             MD  1
           &END EACH
         &END COLVAR
       &END PRINT
     &END METADYN
   &END FREE_ENERGY
   &CONSTRAINT
     &COLLECTIVE
       COLVAR  1
       INTERMOLECULAR  T
       &RESTRAINT
         K     4.4625385281452931E-04
       &END RESTRAINT
     &END COLLECTIVE
     &COLVAR_RESTART
           1.5117809063085145E+01
     &END COLVAR_RESTART
   &END CONSTRAINT
   &PRINT
     &TRAJECTORY  SILENT
       &EACH
         MD  1
       &END EACH
     &END TRAJECTORY
     &VELOCITIES  SILENT
       &EACH
         MD  1
       &END EACH
     &END VELOCITIES
     &FORCES  SILENT
       UNIT eV*angstrom^-1
       &EACH
         MD  1
       &END EACH
     &END FORCES
     &RESTART  SILENT
       &EACH
         MD  1
       &END EACH
     &END RESTART
     &RESTART_HISTORY  SILENT
       &EACH
         MD  100
       &END EACH
     &END RESTART_HISTORY
   &END PRINT
 &END MOTION
 &FORCE_EVAL
   METHOD  QS
   &DFT
     BASIS_SET_FILE_NAME /users/gtocci/scratch_daint_3000/data_cp2k//BASIS_MOLOPT
     POTENTIAL_FILE_NAME /users/gtocci/scratch_daint_3000/data_cp2k//GTH_POTENTIALS
     WFN_RESTART_FILE_NAME ./GRAS-RESTART.wfn
     CHARGE  1
     &SCF
       MAX_SCF  10
       EPS_SCF     9.9999999999999995E-07
       SCF_GUESS  RESTART
       &OT  T
         MINIMIZER  DIIS
         PRECONDITIONER  FULL_KINETIC
       &END OT
       &OUTER_SCF  T
         EPS_SCF     9.9999999999999995E-07
         MAX_SCF  30
       &END OUTER_SCF
       &PRINT
         &RESTART  SILENT
           ADD_LAST  NUMERIC
           &EACH
             QS_SCF  50
           &END EACH
         &END RESTART
       &END PRINT
     &END SCF
     &QS
       MAP_CONSISTENT  T
       EXTRAPOLATION  ASPC
       EXTRAPOLATION_ORDER  4
     &END QS
     &MGRID
       NGRIDS  5
       CUTOFF     4.6000000000000000E+02
     &END MGRID
     &XC
       DENSITY_CUTOFF     1.0000000000000000E-10
       GRADIENT_CUTOFF     1.0000000000000000E-10
       TAU_CUTOFF     1.0000000000000000E-10
       &XC_GRID
         XC_DERIV  SPLINE2_SMOOTH
       &END XC_GRID
       &XC_FUNCTIONAL  NO_SHORTCUT
         &LIBXC  T
           FUNCTIONAL XC_GGA_X_OPTB88_VDW
         &END LIBXC
         &VWN  T
         &END VWN
       &END XC_FUNCTIONAL
       &VDW_POTENTIAL
         POTENTIAL_TYPE  NON_LOCAL
         &NON_LOCAL
           TYPE  DRSLL
           VERBOSE_OUTPUT  T
           KERNEL_FILE_NAME /users/gtocci/scratch_daint_3000/data_cp2k//vdW_kernel_table.dat
         &END NON_LOCAL
       &END VDW_POTENTIAL
     &END XC
     &REAL_TIME_PROPAGATION
       INITIAL_WFN  SCF_WFN
     &END REAL_TIME_PROPAGATION
     &PRINT
       &MULLIKEN  SILENT
         FILENAME =GRAS.mulliken
       &END MULLIKEN
     &END PRINT
   &END DFT
   &SUBSYS
     &CELL
       A     2.5632000000000001E+01    0.0000000000000000E+00    0.0000000000000000E+00
       B     0.0000000000000000E+00    2.4664400000000022E+01    0.0000000000000000E+00
       C     0.0000000000000000E+00    0.0000000000000000E+00    5.0000000000000028E+01
       MULTIPLE_UNIT_CELL  1 1 1
     &END CELL
     &COORD
C    4.1796930113345425E+00   -5.3941164754307023E+00   -5.0191207721245878E-01
C    5.6083393159347592E+00   -5.3988695622446921E+00   -4.9156205909783068E-01
C    6.3127569079850963E+00   -4.1594696551945516E+00   -4.3630687226233600E-01
C    7.7105776685209921E+00   -4.1649180122635627E+00   -3.2704214531386111E-01
C    4.1753545128259946E+00   -2.9131342863995133E+00   -5.5075445787748301E-01
C    5.6097171833897983E+00   -2.9136737109688400E+00   -5.1914887355476924E-01
C    6.3531532582136068E+00   -1.6630525508042673E+00   -5.1599940494289864E-01
C    7.7448807146225374E+00   -1.6810541753785078E+00   -4.1001529866583525E-01
C    4.1878000696487270E+00   -4.5807726095285595E-01   -5.3618432867272814E-01
C    5.6103161470637088E+00   -4.1942140952185625E-01   -5.9396503759653152E-01
C    6.3043304335690289E+00    7.8623474843162278E-01   -6.8219535496930672E-01
C    7.7311236619529353E+00    7.5825648234152354E-01   -6.8070507032252936E-01
C    4.1652310137036599E+00    2.0162582095014789E+00   -6.5627525229361872E-01
C    5.5905270651531573E+00    2.0008393901880090E+00   -6.9357610518921642E-01
C    6.2795958911074887E+00    3.2200797271070147E+00   -7.3021544638779501E-01
C    7.6853728236289482E+00    3.2030706893825647E+00   -7.0187107681919281E-01
C    4.1126422746132096E+00    4.4895353234561206E+00   -7.3585626946982052E-01
C    5.5432011516564854E+00    4.4646803381392930E+00   -7.0966768617474019E-01
C    6.2656063151251820E+00   -6.6517625095648611E+00   -5.0938469570857203E-01
C    7.6981720366551931E+00   -6.6658665708935789E+00   -4.4202081200169019E-01
C    8.4188764413777548E+00   -5.4142396357568430E+00   -3.7056046735415354E-01
C    9.8091769432427984E+00   -5.4490111969805719E+00   -2.6401138459175211E-01
C    1.0537647580223494E+01   -4.1980778534425092E+00   -1.7009761732336398E-01
C    1.1946542499556230E+01   -4.1571523220644719E+00   -2.2269629046254211E-01
C    8.4449226477481343E+00   -2.9264130117790548E+00   -2.8975447542696875E-01
C    9.8342341662510453E+00   -2.9556320274986332E+00   -1.5941078565855546E-01
C    1.0553694864042253E+01   -1.6931291871876655E+00   -1.9531541939783895E-01
C    1.1970454721126661E+01   -1.6805202568295017E+00   -1.7898111772503991E-01
C    8.4388980230303172E+00   -4.4691345810520233E-01   -5.3451775891034448E-01
C    9.8623213386080568E+00   -4.6285304562288848E-01   -3.8080820512928376E-01
C    1.0583479934129345E+01    7.7320364771903549E-01   -3.9242046684066378E-01
C    1.2008133242495056E+01    7.6713968348424710E-01   -2.1948919908216893E-01
C    8.4234887886938203E+00    1.9796033547413354E+00   -6.4853133743997515E-01
C    9.8989394092587286E+00    2.0131932454757413E+00   -5.5844239294680209E-01
C    1.0571561728133290E+01    3.2302802424846599E+00   -4.5431869700576460E-01
C    1.1998015429979372E+01    3.2190854932476274E+00   -2.4923373264523113E-01
C    8.4158710168540516E+00    4.4309901098976381E+00   -6.1120905900134925E-01
C    9.8266148723817306E+00    4.4179471526970486E+00   -4.8017222453392749E-01
C    1.0536428384895551E+01   -6.6373459450405159E+00   -3.2220308827168770E-01
C    1.1965426452698985E+01   -6.6137531853115821E+00   -4.0634046197836210E-01
C    1.2631373690281780E+01   -5.3924975797504935E+00   -2.2802415721189373E-01
C    1.4093339201857155E+01   -5.4184993018882341E+00   -2.2499948696669420E-01
C    1.4772659298000530E+01   -4.1685188287404715E+00   -1.7084414002852893E-01
C    1.6202027192909490E+01   -4.1980395896382605E+00   -2.0553149662456463E-01
C    1.2686015379392488E+01   -2.9003800636050676E+00   -1.2297286388338483E-01
C    1.4088845931482682E+01   -2.9122913920902858E+00   -2.0028950560377701E-01
C    1.4825770124457383E+01   -1.6991454403860302E+00   -8.1483743373263903E-02
C    1.6243535661539426E+01   -1.7032669979585957E+00   -8.6621034473598937E-02
C    1.2695086368238313E+01   -4.8311328308382145E-01   -1.5563211671968710E-01
C    1.4119555064283674E+01   -4.5958517557744888E-01   -1.1481787072771506E-01
C    1.4828594198241383E+01    7.8228143715013088E-01   -4.5372172392651358E-02
C    1.6253878198310062E+01    7.5755963015993733E-01   -5.3248475939748616E-02
C    1.2704919738632935E+01    1.9976901895622814E+00   -1.3757730350733544E-01
C    1.4133337081121343E+01    2.0213728314536206E+00   -4.5670326859403261E-02
C    1.4820881149202940E+01    3.2457221498130120E+00    3.5317156995739195E-02
C    1.6226627954891544E+01    3.2389271705350349E+00   -1.6147000263219000E-02
C    1.2702797421275884E+01    4.4442547857379111E+00   -2.2804326577257475E-01
C    1.4117400653218629E+01    4.5187142888477725E+00    1.1470400253611648E-02
C    1.4805969243063076E+01   -6.6769640744904288E+00   -3.1293764801093960E-01
C    1.6202884921415659E+01   -6.6759799702233016E+00   -3.6019853027929322E-01
C    4.1349693210039939E+00    6.9592316149710509E+00   -7.2690565078217539E-01
C    5.5428815032944270E+00    6.9142742494472840E+00   -7.3086880917404784E-01
C    6.2535721975273351E+00    8.1537468016978192E+00   -7.4871716497152185E-01
C    7.6793109485255826E+00    8.0948893397492299E+00   -6.8868169913963551E-01
C    4.0848665565633251E+00    9.4090229796701621E+00   -8.7111245186950648E-01
C    5.5442624767016193E+00    9.3914661823322909E+00   -8.5045083281491418E-01
C    6.2602339793217832E+00    1.0603534433704612E+01   -7.4973553216711819E-01
C    7.6593918911816807E+00    1.0559303057934587E+01   -6.7155729948775922E-01
C    4.1082034979570476E+00    1.1831928396689412E+01   -8.0477671932190908E-01
C    5.5505636928369686E+00    1.1847075988757981E+01   -7.3347058866297510E-01
C    6.2341426583491781E+00    1.3069810730177299E+01   -6.8698831566420226E-01
C    7.6619593228085598E+00    1.3056347824494265E+01   -6.2039755683310815E-01
C    4.1486377643000170E+00    1.4300801221190458E+01   -6.4181951203534915E-01
C    5.5257746435897337E+00    1.4333674167329480E+01   -5.7486976898719955E-01
C    6.2635537970837039E+00    1.5555703812157978E+01   -5.2741007410138130E-01
C    7.6842868160079494E+00    1.5529113300656556E+01   -5.3930869538155357E-01
C    4.1581599007734740E+00    1.6827095418507344E+01   -5.5859474410362386E-01
C    5.5695010477427873E+00    1.6795545897489038E+01   -4.9564312174915376E-01
C    6.2695303966576770E+00    5.6635574564562576E+00   -7.0983284360426946E-01
C    7.6912885403481628E+00    5.6720269170631203E+00   -6.4232523192171542E-01
C    8.4003181807848559E+00    6.8904915966797224E+00   -6.3338910566602702E-01
C    9.8557426633117515E+00    6.8892587322002834E+00   -5.7884683568919526E-01
C    1.0564669566039834E+01    8.1135213267944941E+00   -5.5718577458818941E-01
C    1.1983904363650236E+01    8.1518396921885721E+00   -4.2853125536869630E-01
C    8.3849904934954687E+00    9.3219839360023826E+00   -6.3604288720632007E-01
C    9.8304354267363987E+00    9.3369922820248323E+00   -6.1218101813391601E-01
C    1.0523930741376374E+01    1.0605076075713292E+01   -5.9655285280329007E-01
C    1.1918535686262683E+01    1.0624434893000744E+01   -5.2904169070219020E-01
C    8.3693614765811919E+00    1.1813308268332939E+01   -6.0350593757834137E-01
C    9.8141650151702198E+00    1.1844988340585658E+01   -6.0782422279044901E-01
C    1.0530886663160816E+01    1.3081854712129646E+01   -5.2956543782111187E-01
C    1.1913335106982537E+01    1.3140548295272461E+01   -4.7436236351757960E-01
C    8.3729026568119416E+00    1.4285521843018389E+01   -5.8749413403335693E-01
C    9.7877657515619276E+00    1.4303409403778675E+01   -4.6021883599779445E-01
C    1.0499943565954069E+01    1.5550362815861547E+01   -3.7085229370503214E-01
C    1.1899484586517298E+01    1.5553894246223715E+01   -4.4440914366276890E-01
C    8.3855770012588557E+00    1.6773951172776776E+01   -4.6624525121241084E-01
C    9.8000546654729597E+00    1.6789102308002938E+01   -4.2126308100090237E-01
C    1.0563754769139841E+01    5.6485488458858706E+00   -5.4456830152208957E-01
C    1.1983822588406106E+01    5.6856931526888888E+00   -4.0034186735672422E-01
C    1.2687913614198068E+01    6.9217743206714450E+00   -3.2263426831962166E-01
C    1.4096210074579240E+01    6.9413540592639507E+00   -1.6323551999617755E-01
C    1.4804556210385346E+01    8.2022188788724666E+00   -1.9782409572498275E-01
C    1.6256501951857476E+01    8.1738236115050658E+00   -1.6768778656129457E-01
C    1.2618121136334821E+01    9.4328968064355863E+00   -3.9000265504305814E-01
C    1.4099810583752186E+01    9.4246708135133783E+00   -2.8776231459736024E-01
C    1.4804767778756753E+01    1.0641431130963277E+01   -3.5576439110160657E-01
C    1.6219058416960667E+01    1.0669293825385752E+01   -3.3620601809134343E-01
C    1.2584312570061234E+01    1.1882440142894026E+01   -5.1523369003413089E-01
C    1.4045664996215038E+01    1.1856850364280250E+01   -4.4268045510917398E-01
C    1.4736507659493567E+01    1.3091260919356362E+01   -4.5108770177114399E-01
C    1.6162851840493293E+01    1.3108883965273494E+01   -3.5749839379085829E-01
C    1.2612395995531207E+01    1.4353286732323156E+01   -4.3018299683332856E-01
C    1.4016988392132491E+01    1.4328805451101005E+01   -4.6612242213694566E-01
C    1.4726245976517474E+01    1.5535549112420714E+01   -4.2620969824618588E-01
C    1.6187379864558768E+01    1.5572135696541258E+01   -3.0008140514443454E-01
C    1.2656766548308195E+01    1.6789589059934894E+01   -3.9938305246949191E-01
C    1.4057846378985225E+01    1.6760251114625579E+01   -3.7407860360946066E-01
C    1.4838087740224445E+01    5.7267954429391050E+00   -2.4612726623706921E-02
C    1.6263586836656163E+01    5.7443915555477156E+00    5.2201573756103195E-02
C    1.6887088391068726E+01   -5.4386271601543061E+00   -2.4397247630680363E-01
C    1.8322556622782312E+01   -5.4326385514452307E+00   -3.7312052780994903E-01
C    1.9007285827056389E+01   -4.1851877299338218E+00   -5.1704833512797488E-01
C    2.0440413807754812E+01   -4.1301881652563184E+00   -5.6633973370953039E-01
C    1.6943229253011573E+01   -2.9436982970401866E+00   -2.3650896403860225E-01
C    1.8328320573862261E+01   -2.9271741027160671E+00   -4.1938353060970152E-01
C    1.9056790510758059E+01   -1.7234111006879052E+00   -4.8250272340300993E-01
C    2.0470480183145270E+01   -1.6997692206630686E+00   -5.9251488748363390E-01
C    1.6959142332399310E+01   -4.8430265768919351E-01   -1.1023727419507198E-01
C    1.8345558613966730E+01   -4.3638664079576273E-01   -2.5048222771429396E-01
C    1.9060156881880143E+01    7.7895509283991371E-01   -2.5897758680836719E-01
C    2.0484479752776064E+01    8.0110627189255912E-01   -4.0375681628086918E-01
C    1.6943609372807526E+01    1.9930784088227047E+00   -9.7482768017035197E-03
C    1.8410128522168066E+01    2.0092647744575349E+00   -1.3926755871190702E-01
C    1.9085961274701617E+01    3.2465307704443744E+00   -2.0583084814231284E-01
C    2.0506808531481330E+01    3.2681984107616513E+00   -3.6488522568513149E-01
C    1.6950398756404162E+01    4.4525457083707973E+00   -4.9391940029586849E-02
C    1.8368783010012148E+01    4.4656122025873319E+00   -8.0672422040797664E-02
C    1.9019504289655227E+01   -6.6203003168579428E+00   -2.9154904446269825E-01
C    2.0444602837095342E+01   -6.6382563899135558E+00   -3.6149384789295069E-01
C    2.1146239978705278E+01   -5.3723025750160138E+00   -5.0152441990331120E-01
C    2.2573821942029038E+01   -5.4020373702992632E+00   -5.6764077337642571E-01
C    2.3295238791446735E+01   -4.1859483323355553E+00   -5.7638154380252626E-01
C    2.4726075733033962E+01   -4.1835710199772977E+00   -6.2473420002448043E-01
C    2.1168362311184968E+01   -2.9312828872001329E+00   -6.0761303917638798E-01
C    2.2601019146802106E+01   -2.9423989381264999E+00   -5.5887928409134013E-01
C    2.3323423577192077E+01   -1.7092447134455895E+00   -4.7423756867525008E-01
C    2.4724218937205627E+01   -1.7322537629589820E+00   -5.5612583155919137E-01
C    2.1161647970435457E+01   -4.5496724249591103E-01   -4.9640375751680782E-01
C    2.2591787068074868E+01   -4.7907418677969915E-01   -5.1882280999388475E-01
C    2.3327535429291093E+01    7.4991728788729850E-01   -5.6456315538323032E-01
C    2.4762145299568498E+01    7.4773076470556488E-01   -5.6452319082827407E-01
C    2.1198836194001153E+01    2.0517134944937885E+00   -4.8538013980938371E-01
C    2.2632583394575917E+01    1.9760244523406236E+00   -5.4129658190493246E-01
C    2.3355329948765764E+01    3.1993192058730604E+00   -5.7295041461414620E-01
C    2.4768601046002189E+01    3.1894737852940325E+00   -7.1535946675891038E-01
C    2.1220009445130657E+01    4.5139881317063830E+00   -3.3769185193194268E-01
C    2.2666615096479791E+01    4.4568588664137812E+00   -5.2680563523115198E-01
C    2.3338289841238652E+01   -6.6467635159510863E+00   -5.9410969853803253E-01
C    2.4759425298566146E+01   -6.6277639612144403E+00   -6.9581082668727601E-01
C    2.5471218119771535E+01   -5.4293731106372363E+00   -7.3340037246647516E-01
C    2.6922143437424825E+01   -5.4357078662950835E+00   -6.3421285982168840E-01
C    2.7664772398254208E+01   -4.1792245864332003E+00   -6.4492069376904426E-01
C    2.9084754406264793E+01   -4.1571666146021755E+00   -5.2967690046937554E-01
C    2.5426483394578028E+01   -2.9473109963130715E+00   -6.3422804295638302E-01
C    2.6890141402485810E+01   -2.9632647277984372E+00   -6.4126712032908262E-01
C    2.7645501163772416E+01   -1.7223777466690853E+00   -6.5677744191410903E-01
C    2.9090870614124714E+01   -1.6990202556185916E+00   -5.4759717644865380E-01
C    2.5455212553123562E+01   -4.6035962668701885E-01   -5.9655340888483022E-01
C    2.6918413551607237E+01   -4.7176822847629524E-01   -6.5532155113740798E-01
C    2.7647704315690117E+01    7.4761811671092493E-01   -6.3095040815705783E-01
C    2.9120269429148426E+01    7.8197875121495286E-01   -5.9329029177939419E-01
C    2.5519269220838559E+01    1.9776500968219717E+00   -6.2878459400266784E-01
C    2.6933896333470010E+01    2.0038961343779427E+00   -6.4001611384941648E-01
C    2.7599035904111588E+01    3.2137466712133569E+00   -7.7054942871643506E-01
C    2.9042233148633866E+01    3.2244849019955861E+00   -7.4858618426608858E-01
C    2.5438602107668888E+01    4.4259964410404260E+00   -8.9130012494377708E-01
C    2.6871590316561544E+01    4.4379840759173508E+00   -8.8989787603280279E-01
C    2.7655090504215632E+01   -6.6217162948957213E+00   -5.9201397346890960E-01
C    2.9068120495485044E+01   -6.5960776104266836E+00   -5.4883358011377215E-01
C    1.6942481600643227E+01    6.9672565201912855E+00   -5.4381158360637942E-02
C    1.8368303217339186E+01    6.9473674697253278E+00   -1.0426088107206825E-01
C    1.9087106395887428E+01    8.1987827284027031E+00   -9.5006911478402900E-02
C    2.0536502202470935E+01    8.1970813035396297E+00   -1.5448528726676664E-01
C    1.6925243917677431E+01    9.4129486599150809E+00   -2.7007146992010855E-01
C    1.8350301914639338E+01    9.4473004523693280E+00   -1.3372893854602330E-01
C    1.9055457092448879E+01    1.0678291322903744E+01   -2.2044796779033551E-01
C    2.0482845409247030E+01    1.0687918732875412E+01   -2.5506785169458818E-01
C    1.6897970132400960E+01    1.1905374708998723E+01   -3.3946544291903158E-01
C    1.8328435281012602E+01    1.1908678539193762E+01   -3.2046333732985882E-01
C    1.9056549539725975E+01    1.3151519059758485E+01   -2.9295974092799637E-01
C    2.0494630715753875E+01    1.3123586016074492E+01   -3.9698175950836040E-01
C    1.6872600466826313E+01    1.4337034594997379E+01   -2.7282860336440645E-01
C    1.8323837030560266E+01    1.4341953066858778E+01   -2.2340306736930549E-01
C    1.9039412836217949E+01    1.5628800899194246E+01   -3.1057762384117482E-01
C    2.0476524593439073E+01    1.5606127690983882E+01   -3.6582820938855803E-01
C    1.6897089884242771E+01    1.6774763702310025E+01   -3.0908610309316747E-01
C    1.8310268879197256E+01    1.6832243932323088E+01   -2.6209234005709836E-01
C    1.9066673438833988E+01    5.7347390807700007E+00   -2.0024849642148126E-01
C    2.0497425603567223E+01    5.7312070968913060E+00   -2.4302264923443659E-01
C    2.1236643785175797E+01    6.9457137395006905E+00   -3.0261108602470177E-01
C    2.2629846145372838E+01    6.9406533285556629E+00   -5.2741809552669894E-01
C    2.3313338662090683E+01    8.1869329822418759E+00   -5.4682540935904211E-01
C    2.4707319149853021E+01    8.1338425550774858E+00   -7.2646051975458992E-01
C    2.1230448278874860E+01    9.4539045070300887E+00   -2.5848018839981762E-01
C    2.2614587166185572E+01    9.4217820678651378E+00   -4.9305505797138272E-01
C    2.3356086231688789E+01    1.0644198004009866E+01   -5.1939130181363369E-01
C    2.4762860142842090E+01    1.0631372431431718E+01   -6.1452897719969735E-01
C    2.1188257196684287E+01    1.1889516830620451E+01   -4.7355283216647232E-01
C    2.2647700422294051E+01    1.1877387614570200E+01   -4.8821987350969037E-01
C    2.3373028209475638E+01    1.3106868944877915E+01   -5.7587685606197003E-01
C    2.4803392184414662E+01    1.3102679579515200E+01   -7.2647276585680653E-01
C    2.1215263408941833E+01    1.4339602906680939E+01   -3.6513274445936533E-01
C    2.2636856421078331E+01    1.4359229658532824E+01   -5.5360549870321707E-01
C    2.3350384917089027E+01    1.5581158951444740E+01   -6.3777367034954557E-01
C    2.4739091537387349E+01    1.5565349369594834E+01   -7.6922439277005461E-01
C    2.1213909532107159E+01    1.6837604197181250E+01   -4.7020137665386491E-01
C    2.2640008145261394E+01    1.6800134785301946E+01   -5.6988125119062594E-01
C    2.3320741641602108E+01    5.6959828262865306E+00   -6.0881995788785659E-01
C    2.4708556422087735E+01    5.6722178380209050E+00   -7.9617275806744336E-01
C    2.5391202089025001E+01    6.9172552100132272E+00   -8.3413860812357166E-01
C    2.6843657423643030E+01    6.9149801680964460E+00   -8.6200469469342222E-01
C    2.7583802840106298E+01    8.1608641660230266E+00   -8.4542099120505798E-01
C    2.9041048242545049E+01    8.1653459638232011E+00   -8.3855938801103647E-01
C    2.5453410408283830E+01    9.3837028986387310E+00   -6.4243403561057344E-01
C    2.6898172380048322E+01    9.3829557926620755E+00   -7.7995417564914382E-01
C    2.7576537526217411E+01    1.0650061054445519E+01   -7.9280027670170905E-01
C    2.9006257741156439E+01    1.0621943096357565E+01   -8.7063284204773506E-01
C    2.5469768380650109E+01    1.1874851422725321E+01   -6.8588841465884409E-01
C    2.6885810188061878E+01    1.1873429025399144E+01   -7.3928839248988454E-01
C    2.7624850976117525E+01    1.3086794718063780E+01   -6.3051712024699336E-01
C    2.9070467543638401E+01    1.3057764534731984E+01   -6.8278511205048265E-01
C    2.5469185116639984E+01    1.4323885090317244E+01   -8.2329068993034216E-01
C    2.6918487526819909E+01    1.4331703768674668E+01   -6.6408131336809773E-01
C    2.7663282642978313E+01    1.5531843741100026E+01   -7.6714217725904332E-01
C    2.9094806218428737E+01    1.5552044579537725E+01   -6.2039623787919873E-01
C    2.5492706017703156E+01    1.6781219042933305E+01   -7.9232947973293599E-01
C    2.6945042244184627E+01    1.6750132419605084E+01   -7.1171690413734146E-01
C    2.7581360165417944E+01    5.6965275723067599E+00   -8.4721912715747738E-01
C    2.9022305714288020E+01    5.7572819754806606E+00   -7.7475738045395315E-01
O    3.4227633885751084E+02    1.4944735996330814E+02    1.0628347458226418E+01
H    3.4305305428347208E+02    1.4958860337436070E+02    1.0006081003590312E+01
H    3.4267824342203880E+02    1.4980777750266145E+02    1.1457693133399754E+01
O    3.4849078820979292E+02    1.7894267876455510E+02    1.1994624554443654E+01
H    3.4897347806161110E+02    1.7975162125681044E+02    1.1964085886460211E+01
H    3.4868199961388649E+02    1.7850380955100536E+02    1.2858560094863787E+01
O    2.7742239018987942E+02    1.9275929592393101E+02    8.5075416838321729E+00
H    2.7694931181621376E+02    1.9234686903739481E+02    7.7441998620564521E+00
H    2.7764192641037596E+02    1.9196450886798493E+02    9.0561474366369143E+00
O    3.7343807843314545E+02    1.3842942226338360E+02    6.5227256478048039E+00
H    3.7441073283929916E+02    1.3843261746354003E+02    6.4164132776944678E+00
H    3.7335736586677990E+02    1.3792514873433797E+02    7.3428671558424758E+00
O    3.0262464429250309E+02    1.6870594605245051E+02    1.7007238330051944E+01
H    3.0245687295286285E+02    1.6966135417797116E+02    1.6741203966198452E+01
H    3.0335392827695227E+02    1.6866531614352019E+02    1.7714685657209014E+01
O    2.2610323318890948E+02    9.0385577692128834E+01    1.6830116668354307E+01
H    2.2529739668677109E+02    9.0205314061219724E+01    1.7374620402649743E+01
H    2.2571173718329911E+02    9.0934307477609323E+01    1.6088396330929076E+01
O    3.4166447999110318E+02    1.8424917411069933E+02    8.6160452741966456E+00
H    3.4198223293021670E+02    1.8334560284704799E+02    8.3284962241640148E+00
H    3.4088701702745260E+02    1.8448896468860707E+02    8.0646227213032695E+00
O    2.5275990309272402E+02    1.2360955026308051E+02    1.6851785750183652E+01
H    2.5196500121435528E+02    1.2417302612109769E+02    1.7135210510157542E+01
H    2.5303147413014821E+02    1.2397039131312299E+02    1.5963700335875812E+01
O    1.9715089540353785E+02    1.6925486637814512E+02    4.6687869091585670E+00
H    1.9630391548389872E+02    1.6913174140718434E+02    4.2032435095311165E+00
H    1.9695043594159608E+02    1.7007591404717354E+02    5.2484367788214659E+00
O    3.4071417973077121E+02    1.0687717579806917E+02    8.5735452304964159E+00
H    3.3994640302090147E+02    1.0751604761005218E+02    8.4688777400836504E+00
H    3.4077439099765689E+02    1.0666721007958543E+02    9.5557470036951120E+00
O    3.1414181786355476E+02    1.8666972936423920E+02    1.2376427090355858E+01
H    3.1349618453590170E+02    1.8724979052832285E+02    1.1854080888292764E+01
H    3.1488295100867731E+02    1.8679363007139219E+02    1.1710185027329480E+01
O    3.0201987034063393E+02    1.9616118198182409E+02    6.1699217478895658E+00
H    3.0132277116798264E+02    1.9625596768158053E+02    5.5243683105996269E+00
H    3.0157152992948022E+02    1.9542127352215090E+02    6.7590599027890210E+00
O    2.9766384358434107E+02    6.9870254222750418E+01    2.9794374349337267E+00
H    2.9720172823623966E+02    7.0755185872319586E+01    2.6943552522731102E+00
H    2.9687046523481018E+02    6.9355322339304635E+01    3.3879065723070680E+00
O    2.5451758578849481E+02    1.7705988063861071E+01    8.6851108283267386E+00
H    2.5487049694201485E+02    1.7791816228797536E+01    7.7467025609686031E+00
H    2.5527882624295452E+02    1.7193700259327613E+01    9.0797297919942803E+00
O    2.1952269564763094E+02    2.9372702518609861E+02    5.6388295063842397E+00
H    2.1890652826678476E+02    2.9360744668956545E+02    6.4364148030473913E+00
H    2.1907250898538828E+02    2.9394430239539679E+02    4.7806026754935802E+00
O    3.3599014352264061E+02    1.8551910799561156E+02    6.8676221522883321E+00
H    3.3523071471367268E+02    1.8582547374070759E+02    6.3263235936800291E+00
H    3.3556396228361922E+02    1.8508596500307689E+02    7.6388168572110224E+00
O    2.5704908973744386E+02    2.0463982087737807E+02    1.3890027756179594E+01
H    2.5643351275257044E+02    2.0475723027705413E+02    1.4660369552589589E+01
H    2.5657344045276420E+02    2.0487035264112737E+02    1.3088592541077611E+01
O    3.0458637965158732E+02    1.4868706221751819E+02    1.1563600986503140E+01
H    3.0480365300095150E+02    1.4882018838190751E+02    1.2506694418277785E+01
H    3.0474056993197547E+02    1.4768577103143954E+02    1.1401438248720913E+01
O    2.6106111416349137E+02    1.6152500341298591E+02    9.5373122462243085E+00
H    2.6111706472514254E+02    1.6205706696356560E+02    1.0355140154446788E+01