 # Version information for this restart file 
 # current date 2020-01-08 20:30:12.474
 # current working dir /scratch/snx3000/gtocci/gtocci/MEMBRANES/AIMD_US_IONS_BN/aimd_us_pot/us_6
 # Program compiled at                              Fri Nov 22 15:19:42 CET 2019
 # Program compiled on                                                  daint102
 # Program compiled for                                   CRAY_XC50-gfortran_gpu
 # Source code revision number                                       git:a698b45
 &GLOBAL
   PRINT_LEVEL  LOW
   PROJECT_NAME BNS
   RUN_TYPE  MD
   WALLTIME 86400
 &END GLOBAL
 &MOTION
   &MD
     ENSEMBLE  NVT
     STEPS  2000
     TIMESTEP     9.9999999999999989E-01
     STEP_START_VAL  31601
     TIME_START_VAL     3.1601000000005151E+04
     ECONS_START_VAL    -8.4997747699005940E+03
     TEMPERATURE     3.0000000000000000E+02
     TEMP_KIND  T
     &BAROSTAT
       PRESSURE     1.0000000000000000E+00
       TIMECON     9.9999999999999986E+01
       VIRIAL  Z
     &END BAROSTAT
     &THERMOSTAT
       TYPE  NOSE
       REGION  GLOBAL
       &NOSE
         LENGTH  4
         TIMECON     9.9999999999999986E+01
         MTS  2
         &COORD
               2.0322299342444974E-01    1.0554060129109120E+01   -7.5044642485725142E+00    8.4145516030715006E-01
         &END COORD
         &VELOCITY
              -2.4088217097732064E-06   -1.3797534867821516E-04    2.2735742164598110E-04   -2.0071094143704778E-04
         &END VELOCITY
         &MASS
               7.0145132684705392E+07    1.6237299232570693E+04    1.6237299232570693E+04    1.6237299232570693E+04
         &END MASS
         &FORCE
              -1.1841903732821226E-10   -3.3443550682774307E-08   -3.9472817007230019E-08   -6.8186166725966354E-09
         &END FORCE
       &END NOSE
     &END THERMOSTAT
     &AVERAGES  T
       &RESTART_AVERAGES
         ITIMES_START  1
         AVECPU     2.5058377230648500E+01
         AVEHUGONIOT     0.0000000000000000E+00
         AVETEMP_BARO     0.0000000000000000E+00
         AVEPOT    -8.5024530073189762E+03
         AVEKIN     2.0552839617144132E+00
         AVETEMP     3.0046600432913726E+02
         AVEKIN_QM     0.0000000000000000E+00
         AVETEMP_QM     0.0000000000000000E+00
         AVEVOL     2.2086622704880580E+05
         AVECELL_A     4.9287836997924984E+01
         AVECELL_B     4.7426456757032177E+01
         AVECELL_C     9.4486306644278812E+01
         AVEALPHA     9.0000000000000000E+01
         AVEBETA     9.0000000000000000E+01
         AVEGAMMA     9.0000000000000000E+01
         AVE_ECONS     1.0984890900195845E+01
         AVE_PRESS     0.0000000000000000E+00
         AVE_PXX     0.0000000000000000E+00
       &END RESTART_AVERAGES
     &END AVERAGES
     &PRINT
       &TEMP_KIND  SILENT
       &END TEMP_KIND
     &END PRINT
   &END MD
   &FREE_ENERGY
     &METADYN
       MIN_DISP    -1.0000000000000000E+00
       OLD_HILL_NUMBER  0
       OLD_HILL_STEP  0
       DO_HILLS  F
       STEP_START_VAL  31601
       NHILLS_START_VAL  0
       &METAVAR
         SCALE     1.0000000000000000E+00
         COLVAR  1
       &END METAVAR
       &PRINT
         &COLVAR  SILENT
           COMMON_ITERATION_LEVELS  3
           &EACH
             MD  1
           &END EACH
         &END COLVAR
       &END PRINT
     &END METADYN
   &END FREE_ENERGY
   &CONSTRAINT
     &COLLECTIVE
       COLVAR  1
       INTERMOLECULAR  T
       &RESTRAINT
         K     4.4625385281452931E-04
       &END RESTRAINT
     &END COLLECTIVE
     &COLVAR_RESTART
           5.8915121426091499E+00
     &END COLVAR_RESTART
   &END CONSTRAINT
   &PRINT
     &TRAJECTORY  SILENT
       &EACH
         MD  1
       &END EACH
     &END TRAJECTORY
     &VELOCITIES  SILENT
       &EACH
         MD  1
       &END EACH
     &END VELOCITIES
     &FORCES  SILENT
       UNIT eV*angstrom^-1
       &EACH
         MD  1
       &END EACH
     &END FORCES
     &RESTART  SILENT
       &EACH
         MD  1
       &END EACH
     &END RESTART
     &RESTART_HISTORY  SILENT
       &EACH
         MD  100
       &END EACH
     &END RESTART_HISTORY
   &END PRINT
 &END MOTION
 &FORCE_EVAL
   METHOD  QS
   &DFT
     BASIS_SET_FILE_NAME /users/gtocci/scratch_daint_3000/data_cp2k//BASIS_MOLOPT
     POTENTIAL_FILE_NAME /users/gtocci/scratch_daint_3000/data_cp2k//GTH_POTENTIALS
     WFN_RESTART_FILE_NAME ./BNS-RESTART.wfn
     CHARGE  1
     &SCF
       MAX_SCF  10
       EPS_SCF     9.9999999999999995E-07
       SCF_GUESS  RESTART
       &OT  T
         MINIMIZER  DIIS
         PRECONDITIONER  FULL_KINETIC
       &END OT
       &OUTER_SCF  T
         EPS_SCF     9.9999999999999995E-07
         MAX_SCF  30
       &END OUTER_SCF
       &PRINT
         &RESTART  SILENT
           ADD_LAST  NUMERIC
           &EACH
             QS_SCF  50
           &END EACH
         &END RESTART
       &END PRINT
     &END SCF
     &QS
       MAP_CONSISTENT  T
       EXTRAPOLATION  ASPC
       EXTRAPOLATION_ORDER  4
     &END QS
     &MGRID
       NGRIDS  5
       CUTOFF     4.6000000000000000E+02
     &END MGRID
     &XC
       DENSITY_CUTOFF     1.0000000000000000E-10
       GRADIENT_CUTOFF     1.0000000000000000E-10
       TAU_CUTOFF     1.0000000000000000E-10
       &XC_GRID
         XC_DERIV  SPLINE2_SMOOTH
       &END XC_GRID
       &XC_FUNCTIONAL  NO_SHORTCUT
         &LIBXC  T
           FUNCTIONAL XC_GGA_X_OPTB88_VDW
         &END LIBXC
         &VWN  T
         &END VWN
       &END XC_FUNCTIONAL
       &VDW_POTENTIAL
         POTENTIAL_TYPE  NON_LOCAL
         &NON_LOCAL
           TYPE  DRSLL
           VERBOSE_OUTPUT  T
           KERNEL_FILE_NAME /users/gtocci/scratch_daint_3000/data_cp2k//vdW_kernel_table.dat
           CUTOFF     3.6000000000000000E+02
         &END NON_LOCAL
       &END VDW_POTENTIAL
     &END XC
     &REAL_TIME_PROPAGATION
       INITIAL_WFN  SCF_WFN
     &END REAL_TIME_PROPAGATION
     &PRINT
       &MULLIKEN  SILENT
         FILENAME =BNS.mulliken
       &END MULLIKEN
     &END PRINT
   &END DFT
   &SUBSYS
     &CELL
       A     2.6082000000000019E+01    0.0000000000000000E+00    0.0000000000000000E+00
       B     0.0000000000000000E+00    2.5097000000000001E+01    0.0000000000000000E+00
       C     0.0000000000000000E+00    0.0000000000000000E+00    5.0000000000000028E+01
       MULTIPLE_UNIT_CELL  1 1 1
     &END CELL
     &COORD
B   -4.2113346377049519E+00    9.5599351949171787E+00   -1.4123514169103247E+01
B   -2.0154029036858883E+00    1.0815620009598737E+01   -1.4195933406810029E+01
B   -4.1717866284770810E+00    1.2073081032747162E+01   -1.4137478316009128E+01
B   -1.9885382422238524E+00    1.3344504733603893E+01   -1.4291580448996998E+01
B   -4.1821047345159936E+00    1.4605742405396468E+01   -1.4373973414948773E+01
B   -1.9641525740338550E+00    1.5814472746804341E+01   -1.4461171710110628E+01
B   -4.1922699451005832E+00    1.7144525813109759E+01   -1.4467717561627429E+01
B   -1.9764493313531686E+00    1.8322116178832346E+01   -1.4446920616951557E+01
B   -4.1838932796815156E+00    1.9591747163760740E+01   -1.4586890576631125E+01
B   -2.0632363761200021E+00    2.0858592622501934E+01   -1.4572496783420410E+01
B    1.4967611282649093E-01    9.5956406110638834E+00   -1.4179904922916661E+01
B    2.3309331634944601E+00    1.0795286054324732E+01   -1.4282213336114472E+01
B    1.9023666903922767E-01    1.2082082647346416E+01   -1.4368023561712919E+01
B    2.3314248633319665E+00    1.3341990195870626E+01   -1.4403394840779720E+01
B    2.3686364465616855E-01    1.4564773322883859E+01   -1.4293522358050541E+01
B    2.3927064567884138E+00    1.5829717828482503E+01   -1.4423133081082286E+01
B    1.8533650049322023E-01    1.7096896960273479E+01   -1.4377762185210617E+01
B    2.3266666368374223E+00    1.8344717397166548E+01   -1.4613809644875657E+01
B    1.5681773909763166E-01    1.9615540536918747E+01   -1.4583612804125300E+01
B    2.2958739985285503E+00    2.0863149273080410E+01   -1.4791919133117197E+01
B    4.5791868641932112E+00    9.5880507819272278E+00   -1.4443612663689070E+01
B    6.6490858229224274E+00    1.0826623395354313E+01   -1.4550120526287776E+01
B    4.5197074115136457E+00    1.2050641820209785E+01   -1.4463414997539072E+01
B    6.6678138290104494E+00    1.3299774045960351E+01   -1.4571066638764535E+01
B    4.4811450680722116E+00    1.4541242658152896E+01   -1.4492547483963151E+01
B    6.6515446751321212E+00    1.5800501877165990E+01   -1.4576552001206807E+01
B    4.4908653009187915E+00    1.7105541479227856E+01   -1.4523427295893303E+01
B    6.6147377637909601E+00    1.8335883997356859E+01   -1.4824787917630838E+01
B    4.4833360520465106E+00    1.9605533804555744E+01   -1.4750493824348355E+01
B    6.6464877779677654E+00    2.0834233347922446E+01   -1.4881966067246642E+01
N   -2.7342246522351923E+00    9.5723934012957983E+00   -1.4054407697958192E+01
N   -5.6178825909148888E-01    1.0835705361070943E+01   -1.4261691668856917E+01
N   -2.7230526645837640E+00    1.2095890562623646E+01   -1.4181379970161037E+01
N   -5.3210804262832290E-01    1.3315596925673995E+01   -1.4247684215431574E+01
N   -2.6874166551628034E+00    1.4612051684973839E+01   -1.4456003430641717E+01
N   -4.7895621380952347E-01    1.5823676396243853E+01   -1.4254011833348546E+01
N   -2.6705024805362045E+00    1.7086188013476374E+01   -1.4460148432875538E+01
N   -5.2115633373683812E-01    1.8371067535139300E+01   -1.4429822622302458E+01
N   -2.7530341737119723E+00    1.9546122001441177E+01   -1.4523369516068684E+01
N   -6.1998351860872059E-01    2.0857596126287174E+01   -1.4610496724431950E+01
N    1.5594962656572191E+00    9.5923471066890986E+00   -1.4184367739169764E+01
N    3.8021501488961111E+00    1.0791116042425520E+01   -1.4369023368613664E+01
N    1.6141733586682292E+00    1.2067219509327732E+01   -1.4452564331820568E+01
N    3.7896344642301409E+00    1.3327467888532883E+01   -1.4471583847348994E+01
N    1.6351268000465340E+00    1.4599976315575898E+01   -1.4297582958651445E+01
N    3.7964066598956765E+00    1.5837336605571037E+01   -1.4518565844410462E+01
N    1.6633795154271842E+00    1.7082412244797684E+01   -1.4517483576137774E+01
N    3.7752166871859956E+00    1.8374582690576023E+01   -1.4511634158853207E+01
N    1.5825933502710021E+00    1.9605684297756984E+01   -1.4744250717289576E+01
N    3.7629803945049498E+00    2.0878011464316696E+01   -1.4836952888313935E+01
N    5.9665635703142899E+00    9.5751424799673757E+00   -1.4547964425066471E+01
N    8.1088850316841228E+00    1.0836481182647232E+01   -1.4630051507485947E+01
N    5.9600186331687812E+00    1.2087849660844938E+01   -1.4543190655900498E+01
N    8.1260955379816018E+00    1.3351650198341867E+01   -1.4565977563469795E+01
N    5.9312659562398640E+00    1.4553221623661004E+01   -1.4642232022829308E+01
N    8.0930104739637052E+00    1.5822774331273010E+01   -1.4536310319447203E+01
N    5.9069616698567406E+00    1.7023271204802736E+01   -1.4571268447614296E+01
N    8.1073267283384016E+00    1.8322353329703759E+01   -1.4888387113278601E+01
N    5.9219107744444619E+00    1.9577565448441536E+01   -1.4918711096910979E+01
N    8.1166726512237535E+00    2.0875392679456986E+01   -1.4881877914509623E+01
B   -4.2228492172178207E+00    2.2151182080880034E+01   -1.4628211744777586E+01
B   -2.0847322470565595E+00    2.3395374550186293E+01   -1.4648152929724029E+01
B   -4.2624176433289946E+00    2.4673523492287156E+01   -1.4670288276397480E+01
B   -2.1285349731089953E+00    2.5930591094797744E+01   -1.4701202705088667E+01
B   -4.2432829876611855E+00    2.7167034231419578E+01   -1.4739511790131870E+01
B   -2.0895693265423900E+00    2.8387943757953675E+01   -1.4742865209648599E+01
B   -4.2440121933285448E+00    2.9672828145101359E+01   -1.4524117317664739E+01
B   -2.0544203280407740E+00    3.0884620624858769E+01   -1.4506814948264498E+01
B   -4.1765414307486219E+00    3.2154483560827359E+01   -1.4311907543318311E+01
B   -2.0243381106453069E+00    3.3372291350640843E+01   -1.4209768790321895E+01
B    1.6481400639180441E-01    2.2135146269388617E+01   -1.4597374791549646E+01
B    2.2956875261351706E+00    2.3421112695461712E+01   -1.4925418175498486E+01
B    6.9468930818538818E-02    2.4629416567841830E+01   -1.4588621461742376E+01
B    2.2923475759055623E+00    2.5872144806194171E+01   -1.4879626833135507E+01
B    1.1317227041034628E-01    2.7105553100274985E+01   -1.4663739752855726E+01
B    2.2821478145474492E+00    2.8424240236779429E+01   -1.4698996139420327E+01
B    1.4457079585427046E-01    2.9654005851207959E+01   -1.4538502391211802E+01
B    2.3464760412908610E+00    3.0916631588684979E+01   -1.4534952610015514E+01
B    7.5724738087005278E-02    3.2138137021852486E+01   -1.4283072089094665E+01
B    2.3472256506905085E+00    3.3405186439468061E+01   -1.4275598892585650E+01
B    4.4692856071593496E+00    2.2103404311665368E+01   -1.5016031126182353E+01
B    6.6547746673842951E+00    2.3358704921181555E+01   -1.4936509716263119E+01
B    4.5305322543416162E+00    2.4617647612829682E+01   -1.5029443319420130E+01
B    6.6829037601977603E+00    2.5859058684622276E+01   -1.4894664550397936E+01
B    4.5069527522639836E+00    2.7106550631243643E+01   -1.4967498038104463E+01
B    6.6381314980888586E+00    2.8335539335499792E+01   -1.4739200223466142E+01
B    4.4411979224933207E+00    2.9651009753309520E+01   -1.4691323076751337E+01
B    6.6338453297796880E+00    3.0814843783630181E+01   -1.4623341835329096E+01
B    4.5477777513657474E+00    3.2118349320375245E+01   -1.4492166201134118E+01
B    6.6733834939539030E+00    3.3351016474947599E+01   -1.4551799771035538E+01
N   -2.7846895369483877E+00    2.2128104068031355E+01   -1.4704875197002929E+01
N   -6.2821524036172649E-01    2.3349932976425638E+01   -1.4586798842131248E+01
N   -2.8049939393484586E+00    2.4666893329715158E+01   -1.4670382541173824E+01
N   -6.3306248755376104E-01    2.5920828732532495E+01   -1.4584604133375372E+01
N   -2.8221025444621985E+00    2.7167859970610262E+01   -1.4795273159432668E+01
N   -5.7685346029745888E-01    2.8377661446111897E+01   -1.4598907753334348E+01
N   -2.7777683191496565E+00    2.9619376065940990E+01   -1.4586457383769572E+01
N   -6.1989901490723420E-01    3.0859127842064719E+01   -1.4373748731766639E+01
N   -2.7627483019190207E+00    3.2170592777177234E+01   -1.4420266947532163E+01
N   -5.4703244790825145E-01    3.3426528271879384E+01   -1.4128438437147176E+01
N    1.6130776819624810E+00    2.2165970410611813E+01   -1.4664430938025440E+01
N    3.7071129276248622E+00    2.3374240118739710E+01   -1.5087689953404706E+01
N    1.5443107170807213E+00    2.4670311307025738E+01   -1.4807400541370225E+01
N    3.8020307659556591E+00    2.5837348797970925E+01   -1.4944161174718895E+01
N    1.5830321195547290E+00    2.7130463325512526E+01   -1.4881649506096949E+01
N    3.7088074929106285E+00    2.8417568934893122E+01   -1.4838028360026513E+01
N    1.6208913242917904E+00    2.9678820413120629E+01   -1.4499231433428141E+01
N    3.7469734215365800E+00    3.0878003129061725E+01   -1.4666200054456430E+01
N    1.5844373814819177E+00    3.2108569063578059E+01   -1.4347721004678736E+01
N    3.8675375254504347E+00    3.3404248076561259E+01   -1.4459242686946014E+01
N    5.9103843732915484E+00    2.2077476117327514E+01   -1.4994517777710174E+01
N    8.0721680598255094E+00    2.3344671457133405E+01   -1.4763033573992878E+01
N    5.9953677826507334E+00    2.4608809608708928E+01   -1.5001859391184112E+01
N    8.1338341403350150E+00    2.5870303610131991E+01   -1.4884315235086488E+01
N    5.9667579036899161E+00    2.7109112286978331E+01   -1.4795239890871887E+01
N    8.1190399190929696E+00    2.8384901178311086E+01   -1.4622694386945689E+01
N    5.9307168566315713E+00    2.9598018273253558E+01   -1.4587848311254762E+01
N    8.1280742360688070E+00    3.0892479925480661E+01   -1.4535281009889330E+01
N    5.9524298023498021E+00    3.2119667844081128E+01   -1.4490784811064517E+01
N    8.0646836854369095E+00    3.3386684965207778E+01   -1.4582904685340401E+01
B    8.7907411679974139E+00    9.5449111338113894E+00   -1.4638635623259614E+01
B    1.0982220034734215E+01    1.0765041952632579E+01   -1.4381927000683747E+01
B    8.8244609891891344E+00    1.2077277220084575E+01   -1.4557407588896631E+01
B    1.1063776833003491E+01    1.3294605422147804E+01   -1.4558883779115407E+01
B    8.8610239210290160E+00    1.4581677408898040E+01   -1.4516884269465258E+01
B    1.1025435691947186E+01    1.5808983550064383E+01   -1.4835626758670257E+01
B    8.8370846377214392E+00    1.7052216138281604E+01   -1.4769694908970063E+01
B    1.0983974060547329E+01    1.8389505479682715E+01   -1.5052435848193632E+01
B    8.8025508377174564E+00    1.9620488955722234E+01   -1.4866885476832909E+01
B    1.0977732690788596E+01    2.0910996337695153E+01   -1.4802826645308308E+01
B    1.3189107060955207E+01    9.5630222480486715E+00   -1.4288145875429629E+01
B    1.5351281943441711E+01    1.0795262734730219E+01   -1.4126303247476752E+01
B    1.3155196946295350E+01    1.2013856204998701E+01   -1.4253840548575203E+01
B    1.5398137039357788E+01    1.3309411510639647E+01   -1.4306511668902486E+01
B    1.3211777663034368E+01    1.4550923691571528E+01   -1.4607444977873975E+01
B    1.5413165962535132E+01    1.5837781924513008E+01   -1.4585163757582226E+01
B    1.3199737860922667E+01    1.7087230656983031E+01   -1.4925367079480365E+01
B    1.5326825888835019E+01    1.8308190205566795E+01   -1.4831154428329912E+01
B    1.3172931211786516E+01    1.9604691027347169E+01   -1.4921213298232750E+01
B    1.5360326851754834E+01    2.0763350330890013E+01   -1.4863978334776833E+01
B    1.7565605674220095E+01    9.5693392895758667E+00   -1.4077553616152843E+01
B    1.9699410175404392E+01    1.0880601506546121E+01   -1.4222397747632877E+01
B    1.7581188568796183E+01    1.2080069006824937E+01   -1.4198367999632437E+01
B    1.9704291112972019E+01    1.3365526440422965E+01   -1.4396781224301035E+01
B    1.7542029213704954E+01    1.4601814414303513E+01   -1.4330150035931304E+01
B    1.9758107880332066E+01    1.5853421503721037E+01   -1.4427065857302026E+01
B    1.7513085683180616E+01    1.7087287695171121E+01   -1.4571358832059765E+01
B    1.9687818113813140E+01    1.8314791788843277E+01   -1.4426128321399338E+01
B    1.7526698996031779E+01    1.9572594309583309E+01   -1.4666491690605815E+01
B    1.9719947284581043E+01    2.0796886430714384E+01   -1.4622728930937454E+01
N    1.0222352214266518E+01    9.4984779205995498E+00   -1.4533985746841877E+01
N    1.2433645595389608E+01    1.0759949518331892E+01   -1.4311680918688145E+01
N    1.0262762516240088E+01    1.2055643823442379E+01   -1.4411319928297026E+01
N    1.2488070105413142E+01    1.3312930883094207E+01   -1.4422080510285172E+01
N    1.0315720010750757E+01    1.4527051892090380E+01   -1.4643419040857998E+01
N    1.2473976761596784E+01    1.5783341655376251E+01   -1.4909370472702360E+01
N    1.0288928950838949E+01    1.7057753958941355E+01   -1.4958216049458427E+01
N    1.2456049236652792E+01    1.8381023175833242E+01   -1.5106761592500430E+01
N    1.0301155376359207E+01    1.9652451741471623E+01   -1.4966608553983161E+01
N    1.2426315518486780E+01    2.0877003922295312E+01   -1.4758359354220408E+01
N    1.4631963849382833E+01    9.5335725267624873E+00   -1.4215467792503693E+01
N    1.6832158101601394E+01    1.0816472162031010E+01   -1.4026420290835674E+01
N    1.4608079637769455E+01    1.2036236093719788E+01   -1.4218821726501536E+01
N    1.6832903473839760E+01    1.3293192138301922E+01   -1.4226446475176855E+01
N    1.4673072861225695E+01    1.4556392435202087E+01   -1.4484626847328872E+01
N    1.6860229088838619E+01    1.5850601270839398E+01   -1.4640381758283116E+01
N    1.4644263286986096E+01    1.7066752984290897E+01   -1.4792438150778800E+01
N    1.6775432237110184E+01    1.8369179361348628E+01   -1.4777459345730827E+01
N    1.4583560767260213E+01    1.9544564316100978E+01   -1.4964403128522520E+01
N    1.6769380217979887E+01    2.0824211265013240E+01   -1.4735293225859065E+01
N    1.9017224136218172E+01    9.5996842908207700E+00   -1.4103166899395063E+01
N    2.1183008299471407E+01    1.0833296806292559E+01   -1.4161812554704822E+01
N    1.9032072839138984E+01    1.2130463310610869E+01   -1.4376570813540049E+01
N    2.1158230120698214E+01    1.3362554574234922E+01   -1.4339210059385760E+01
N    1.8982221854782914E+01    1.4601173001410826E+01   -1.4335549576529250E+01
N    2.1218149420572622E+01    1.5846526366574219E+01   -1.4377075047949177E+01
N    1.8948686027329337E+01    1.7069313588833328E+01   -1.4416689154918402E+01
N    2.1145158792114135E+01    1.8322786538027927E+01   -1.4401963317275808E+01
N    1.8983069779508753E+01    1.9569962832052809E+01   -1.4566086274527599E+01
N    2.1140021521422231E+01    2.0819027887910867E+01   -1.4639012284956616E+01
B    8.8306584964214263E+00    2.2116351891309264E+01   -1.4877529142639231E+01
B    1.0963856457107537E+01    2.3392065253609665E+01   -1.4616967190972742E+01
B    8.8063333214239599E+00    2.4597893487012463E+01   -1.4745493610590577E+01
B    1.0967638068531285E+01    2.5890596135078273E+01   -1.4491931386140250E+01
B    8.8511226024036702E+00    2.7154832854380555E+01   -1.4732697085690713E+01
B    1.1003834143854673E+01    2.8377848402992534E+01   -1.4422321820874611E+01
B    8.8247255391708350E+00    2.9648270736419089E+01   -1.4519886962925925E+01
B    1.1030758829020284E+01    3.0802800097907014E+01   -1.4351254493579205E+01
B    8.8353996008109412E+00    3.2157601406180760E+01   -1.4449327373505927E+01
B    1.1020401632730774E+01    3.3307621211737661E+01   -1.4533125857895588E+01
B    1.3151339908493380E+01    2.2085532005552320E+01   -1.4656428880323942E+01
B    1.5366969662448927E+01    2.3335924462996346E+01   -1.4577606303883044E+01
B    1.3152365546497991E+01    2.4681795710913320E+01   -1.4501031943044815E+01
B    1.5355138710660199E+01    2.5824566399287228E+01   -1.4595390989856920E+01
B    1.3131456336284923E+01    2.7114280898235467E+01   -1.4469481416062397E+01
B    1.5344299536291214E+01    2.8354714636849362E+01   -1.4405736061211565E+01
B    1.3166982678433387E+01    2.9606231767825616E+01   -1.4296095624153139E+01
B    1.5336147708095799E+01    3.0915035916807252E+01   -1.4221226153477012E+01
B    1.3190987859694914E+01    3.2120864412020374E+01   -1.4384593861475663E+01
B    1.5361980863040902E+01    3.3409583329486068E+01   -1.4271154973263107E+01
B    1.7487163886128666E+01    2.2056764865552470E+01   -1.4615954091933109E+01
B    1.9631262239997604E+01    2.3378910538484778E+01   -1.4573575381387794E+01
B    1.7494274962593831E+01    2.4579246807298571E+01   -1.4447338880228420E+01
B    1.9650037089100969E+01    2.5874558965096785E+01   -1.4604952792618501E+01
B    1.7513028557105891E+01    2.7105934226643381E+01   -1.4568718646897263E+01
B    1.9688380395248938E+01    2.8379475298205232E+01   -1.4583228396048863E+01
B    1.7530192540025283E+01    2.9594785516019531E+01   -1.4384036007218622E+01
B    1.9693347360192309E+01    3.0940692014642366E+01   -1.4373564531499635E+01
B    1.7488264890101750E+01    3.2120432797287563E+01   -1.4212305200802977E+01
B    1.9726714825467180E+01    3.3433881174267000E+01   -1.4148091986709973E+01
N    1.0261925198071662E+01    2.2162940252218704E+01   -1.4741000981077086E+01
N    1.2462167078734423E+01    2.3372273980606249E+01   -1.4458996005291759E+01
N    1.0259728285779580E+01    2.4678394838256619E+01   -1.4629965656701543E+01
N    1.2412531569860933E+01    2.5895041013928168E+01   -1.4459565309377112E+01
N    1.0312339475836463E+01    2.7153604813684435E+01   -1.4642603859987794E+01
N    1.2438374639064740E+01    2.8367920827180875E+01   -1.4287380870981391E+01
N    1.0264843409086129E+01    2.9592513332759939E+01   -1.4393679785624240E+01
N    1.2460001813101917E+01    3.0854084059539606E+01   -1.4418456601924882E+01
N    1.0280334428877708E+01    3.2103886473546574E+01   -1.4315061396834890E+01
N    1.2446717176158906E+01    3.3367699007662480E+01   -1.4488378910318037E+01
N    1.4635299950230143E+01    2.2051544315496944E+01   -1.4638871499823681E+01
N    1.6800396401110717E+01    2.3338285359892961E+01   -1.4435442304865830E+01
N    1.4668059941006749E+01    2.4583448526694198E+01   -1.4496341600888540E+01
N    1.6781966278769744E+01    2.5869808876444516E+01   -1.4569411384245884E+01
N    1.4617683997516801E+01    2.7125761567329857E+01   -1.4563769599133668E+01
N    1.6803681198391409E+01    2.8336615333366893E+01   -1.4371725872338358E+01
N    1.4674529853549727E+01    2.9610831402509771E+01   -1.4212209886823867E+01
N    1.6763945648970306E+01    3.0849565969291646E+01   -1.4100758845122689E+01
N    1.4650753844995732E+01    3.2160381260408762E+01   -1.4267584544853111E+01
N    1.6821985307953089E+01    3.3381265791331053E+01   -1.4248374662503704E+01
N    1.8914724303684007E+01    2.2077032176093741E+01   -1.4597660021519962E+01
N    2.1106146529244288E+01    2.3370920250820955E+01   -1.4620409010471459E+01
N    1.8942650915439902E+01    2.4655014180055993E+01   -1.4516213244853333E+01
N    2.1061603952036275E+01    2.5923021906345067E+01   -1.4709697278752371E+01
N    1.8928922900205741E+01    2.7146395060334815E+01   -1.4624684290628366E+01
N    2.1112503482192285E+01    2.8385496914614407E+01   -1.4572425073802210E+01
N    1.8988906375677431E+01    2.9623274460590856E+01   -1.4525685359932684E+01
N    2.1147886098497569E+01    3.0900795898320517E+01   -1.4321950478526006E+01
N    1.8957117479603852E+01    3.2161695188564906E+01   -1.4233725237227299E+01
N    2.1174577641615151E+01    3.3389820537611193E+01   -1.4219110399226484E+01
O   -4.0947065339011024E+00    3.8627013410880586E+01   -7.2656429132771407E+00
H   -3.7304213323189774E+00    3.9395365288326147E+01   -7.8036365497493065E+00
H   -4.1376225929386550E+00    3.9108776517707902E+01   -6.3610821574780081E+00
O   -7.1152534932744718E-02    6.3560058850927511E+01   -1.1101609585785626E+01
H   -7.9772835513374152E-01    6.4082792590116583E+01   -1.0731297489700204E+01
H   -4.9769631138207293E-01    6.2901000265086040E+01   -1.1587493967876645E+01
O   -4.4456928237608238E+01    8.3781229537916758E+01   -6.3372805984335301E-01
H   -4.3704044794464906E+01    8.3706696679646882E+01   -1.3446351006258239E+00
H   -4.4603376611341453E+01    8.4819485965084297E+01   -6.3002750117953243E-01
O   -1.5612352128750445E+01    4.8048617247384264E+01   -5.5967649274858271E+00
H   -1.6282820338894510E+01    4.8750496013182108E+01   -5.6446254560050990E+00
H   -1.4795109340731276E+01    4.8399960768284565E+01   -6.0909349912408226E+00
O   -6.4254834702417995E+01    8.0740691275922359E+01   -4.0822200147448555E+00
H   -6.3230300298781515E+01    8.0730562771376498E+01   -3.8609142619327592E+00
H   -6.4441257427100169E+01    8.1678859178226432E+01   -4.3001468109542031E+00
O    1.7512897528624791E+01    7.3971749442878959E+01    3.2599921552490740E+00
H    1.7755788337080027E+01    7.3346099469231177E+01    4.0062387156409693E+00
H    1.6712760838869901E+01    7.3571350919018187E+01    2.7980144840785983E+00
O    2.3527901314200015E+01    5.8282896004017630E+01    8.7470307798818192E-01
H    2.3340537941472462E+01    5.8495364494196551E+01   -1.1077402637335222E-01
H    2.2932574688432261E+01    5.8825767469608472E+01    1.5479464335387838E+00
O   -1.8261414274762373E+01    8.6591393557975266E+01   -3.7400968220953751E-01
H   -1.7957798025049669E+01    8.6999673314430126E+01    4.6387384951982047E-01
H   -1.8169639539718062E+01    8.7270874748328964E+01   -1.1057341653787141E+00
O   -1.3794912852778733E+01    1.0241264373411894E+02   -3.0192754434998306E+00
H   -1.3188396888068780E+01    1.0311930755935070E+02   -2.7003387068422562E+00
H   -1.3199599109592635E+01    1.0161735308739327E+02   -3.1068419303797992E+00
O   -1.8008972944016723E+01    5.2583172942965390E+01   -1.1545727141530090E+01
H   -1.7567631241041237E+01    5.1727952639438357E+01   -1.1585677457215638E+01
H   -1.7729785762744999E+01    5.2953482373340819E+01   -1.2432376720471941E+01
O   -1.7513705288418752E+01    2.6096574825654521E+01    3.1915273037929595E+00
H   -1.6617976812115653E+01    2.5696065340321063E+01    3.1018762312560813E+00
H   -1.8135780613220529E+01    2.5496705942472147E+01    2.7177999148493566E+00
O   -1.5782582170042394E+01    4.5591777761835317E+01    3.6662007129644176E+00
H   -1.6513429033707460E+01    4.5124445299674328E+01    4.1264090603239127E+00
H   -1.5336404753430170E+01    4.4812775646170401E+01    3.3508320157302376E+00
O   -4.3385238429908775E+01    1.2672489244258877E+01    2.0050458858115365E+00
H   -4.2822468025263163E+01    1.3573769090004305E+01    2.1584052215361371E+00
H   -4.4069074830250820E+01    1.2669037280750032E+01    2.7145710810861692E+00
O    2.6556930229537269E+01    3.9558501876719370E+00    2.1897008772849889E+00
H    2.7024823487615794E+01    3.1077022924048632E+00    2.5792955478901196E+00
H    2.6587117883927395E+01    3.8065253420765401E+00    1.2145097522511581E+00
O   -7.2682806442044182E+01    8.3540548266462153E+01   -1.1076929054598834E+01
H   -7.3482645525146424E+01    8.3161849010862710E+01   -1.1575883148611238E+01
H   -7.2954538809851641E+01    8.4458033843392471E+01   -1.0901222566842883E+01
O    4.2456073052779168E+01    1.1106588327675637E+02    2.9973937808367186E+00
H    4.3243416981536214E+01    1.1083905142951720E+02    2.5017726266513716E+00
H    4.1737559512593677E+01    1.1038539039135790E+02    3.0207289124439893E+00
O   -2.7146916531956037E+01    3.8279401359879429E+01   -6.4883067965955048E+00
H   -2.8034505530566218E+01    3.8381401021845399E+01   -6.8951572061735762E+00
H   -2.7230405758206992E+01    3.7544359560179693E+01   -5.8153865867225489E+00
O   -1.0130899096801237E+01    6.4240289358313262E+01   -1.1480144715286700E+01
H   -9.1616887362539288E+00    6.4116475192999545E+01   -1.1535778577369474E+01
H   -1.0301820813055247E+01    6.3918290217657891E+01   -1.0590765555493238E+01
O   -1.4935804029673271E+01    4.3464533709053818E+01   -2.2216458465452793E+00