 # Version information for this restart file 
 # current date 2020-04-19 00:25:12.296
 # current working dir /scratch/snx3000/gtocci/gtocci/MEMBRANES/AIMD_US_IONS_GRA/us_aimd_new/us_24
 # Program compiled at                              Fri Nov 22 15:19:42 CET 2019
 # Program compiled on                                                  daint102
 # Program compiled for                                   CRAY_XC50-gfortran_gpu
 # Source code revision number                                       git:a698b45
 &GLOBAL
   PRINT_LEVEL  LOW
   PROJECT_NAME GRAS
   RUN_TYPE  MD
   WALLTIME 86400
 &END GLOBAL
 &MOTION
   &MD
     ENSEMBLE  NVT
     STEPS  2000
     TIMESTEP     9.9999999999999989E-01
     STEP_START_VAL  78831
     TIME_START_VAL     7.8830999999932130E+04
     ECONS_START_VAL    -8.3040436303018741E+03
     TEMPERATURE     3.0000000000000000E+02
     TEMP_KIND  T
     &BAROSTAT
       PRESSURE     1.0000000000000000E+00
       TIMECON     9.9999999999999986E+01
       VIRIAL  Z
     &END BAROSTAT
     &THERMOSTAT
       TYPE  NOSE
       REGION  GLOBAL
       &NOSE
         LENGTH  4
         TIMECON     9.9999999999999986E+01
         MTS  2
         &COORD
               1.0196584998613482E-01    2.7001224542541006E+01    1.6623153018701814E+01   -2.9970124713696070E+01
         &END COORD
         &VELOCITY
               4.9170231643351435E-07   -8.4439036113971469E-05   -2.4597977689467762E-04    2.5538994813138039E-04
         &END VELOCITY
         &MASS
               7.0145132684705392E+07    1.6237299232570693E+04    1.6237299232570693E+04    1.6237299232570693E+04
         &END MASS
         &FORCE
               1.2412964474941146E-09   -5.7465562404405193E-08   -5.1380063030248491E-08    1.9960367910503056E-09
         &END FORCE
       &END NOSE
     &END THERMOSTAT
     &AVERAGES  T
       &RESTART_AVERAGES
         ITIMES_START  1
         AVECPU     3.1486900448129617E+01
         AVEHUGONIOT     0.0000000000000000E+00
         AVETEMP_BARO     0.0000000000000000E+00
         AVEPOT    -8.3065592717167910E+03
         AVEKIN     2.0530867309674599E+00
         AVETEMP     3.0014478684511687E+02
         AVEKIN_QM     0.0000000000000000E+00
         AVETEMP_QM     0.0000000000000000E+00
         AVEVOL     2.1331414786626375E+05
         AVECELL_A     4.8437460238121709E+01
         AVECELL_B     4.6608961231948342E+01
         AVECELL_C     9.4486306644281314E+01
         AVEALPHA     9.0000000000000028E+01
         AVEBETA     9.0000000000000028E+01
         AVEGAMMA     9.0000000000000028E+01
         AVE_ECONS    -1.3276424980902160E-02
         AVE_PRESS     0.0000000000000000E+00
         AVE_PXX     0.0000000000000000E+00
       &END RESTART_AVERAGES
     &END AVERAGES
     &PRINT
       &TEMP_KIND  SILENT
       &END TEMP_KIND
     &END PRINT
   &END MD
   &FREE_ENERGY
     &METADYN
       MIN_DISP    -1.0000000000000000E+00
       OLD_HILL_NUMBER  0
       OLD_HILL_STEP  0
       DO_HILLS  F
       STEP_START_VAL  78831
       NHILLS_START_VAL  0
       &METAVAR
         SCALE     1.0000000000000000E+00
         COLVAR  1
       &END METAVAR
       &PRINT
         &COLVAR  SILENT
           COMMON_ITERATION_LEVELS  3
           &EACH
             MD  1
           &END EACH
         &END COLVAR
       &END PRINT
     &END METADYN
   &END FREE_ENERGY
   &CONSTRAINT
     &COLLECTIVE
       COLVAR  1
       INTERMOLECULAR  T
       &RESTRAINT
         K     4.4625385281452931E-04
       &END RESTRAINT
     &END COLLECTIVE
     &COLVAR_RESTART
           2.2676713594627724E+01
     &END COLVAR_RESTART
   &END CONSTRAINT
   &PRINT
     &TRAJECTORY  SILENT
       &EACH
         MD  1
       &END EACH
     &END TRAJECTORY
     &VELOCITIES  SILENT
       &EACH
         MD  1
       &END EACH
     &END VELOCITIES
     &FORCES  SILENT
       UNIT eV*angstrom^-1
       &EACH
         MD  1
       &END EACH
     &END FORCES
     &RESTART  SILENT
       &EACH
         MD  1
       &END EACH
     &END RESTART
     &RESTART_HISTORY  SILENT
       &EACH
         MD  100
       &END EACH
     &END RESTART_HISTORY
   &END PRINT
 &END MOTION
 &FORCE_EVAL
   METHOD  QS
   &DFT
     BASIS_SET_FILE_NAME /users/gtocci/scratch_daint_3000/data_cp2k//BASIS_MOLOPT
     POTENTIAL_FILE_NAME /users/gtocci/scratch_daint_3000/data_cp2k//GTH_POTENTIALS
     WFN_RESTART_FILE_NAME ./GRAS-RESTART.wfn
     CHARGE  -1
     &SCF
       MAX_SCF  10
       EPS_SCF     9.9999999999999995E-07
       SCF_GUESS  RESTART
       &OT  T
         MINIMIZER  DIIS
         PRECONDITIONER  FULL_KINETIC
       &END OT
       &OUTER_SCF  T
         EPS_SCF     9.9999999999999995E-07
         MAX_SCF  30
       &END OUTER_SCF
       &PRINT
         &RESTART  SILENT
           ADD_LAST  NUMERIC
           &EACH
             QS_SCF  50
           &END EACH
         &END RESTART
       &END PRINT
     &END SCF
     &QS
       MAP_CONSISTENT  T
       EXTRAPOLATION  ASPC
       EXTRAPOLATION_ORDER  4
     &END QS
     &MGRID
       NGRIDS  5
       CUTOFF     4.6000000000000000E+02
     &END MGRID
     &XC
       DENSITY_CUTOFF     1.0000000000000000E-10
       GRADIENT_CUTOFF     1.0000000000000000E-10
       TAU_CUTOFF     1.0000000000000000E-10
       &XC_GRID
         XC_DERIV  SPLINE2_SMOOTH
       &END XC_GRID
       &XC_FUNCTIONAL  NO_SHORTCUT
         &LIBXC  T
           FUNCTIONAL XC_GGA_X_OPTB88_VDW
         &END LIBXC
         &VWN  T
         &END VWN
       &END XC_FUNCTIONAL
       &VDW_POTENTIAL
         POTENTIAL_TYPE  NON_LOCAL
         &NON_LOCAL
           TYPE  DRSLL
           VERBOSE_OUTPUT  T
           KERNEL_FILE_NAME /users/gtocci/scratch_daint_3000/data_cp2k//vdW_kernel_table.dat
         &END NON_LOCAL
       &END VDW_POTENTIAL
     &END XC
     &REAL_TIME_PROPAGATION
       INITIAL_WFN  SCF_WFN
     &END REAL_TIME_PROPAGATION
     &PRINT
       &MULLIKEN  SILENT
         FILENAME =GRAS.mulliken
       &END MULLIKEN
     &END PRINT
   &END DFT
   &SUBSYS
     &CELL
       A     2.5632000000000001E+01    0.0000000000000000E+00    0.0000000000000000E+00
       B     0.0000000000000000E+00    2.4664400000000022E+01    0.0000000000000000E+00
       C     0.0000000000000000E+00    0.0000000000000000E+00    5.0000000000000028E+01
       MULTIPLE_UNIT_CELL  1 1 1
     &END CELL
     &COORD
C   -2.0859118210270413E+00    1.3723479833176226E+00   -6.5060450660982010E+00
C   -6.6082890701465269E-01    1.3653132041053984E+00   -6.4390392515939734E+00
C    5.3070244504289550E-02    2.6040763080998195E+00   -6.4092855143554877E+00
C    1.4750386632492132E+00    2.5831382900178745E+00   -6.4043917483647785E+00
C   -2.0989462426096028E+00    3.7948615357515716E+00   -6.5871956102118387E+00
C   -6.4667923534578797E-01    3.8441824376091849E+00   -6.4164841407095254E+00
C    5.3281378078752127E-02    5.0203884038242714E+00   -6.3226615180028922E+00
C    1.4923340232592439E+00    5.0091192220125116E+00   -6.1869874688180415E+00
C   -2.0507450654172334E+00    6.2756532323494314E+00   -6.4737445691457713E+00
C   -6.3185010272009534E-01    6.2736072944619696E+00   -6.3494467422867906E+00
C    9.3554595696534251E-02    7.4791613262393097E+00   -6.2665975160489129E+00
C    1.5159146476165468E+00    7.4678221812758352E+00   -6.1513965953478955E+00
C   -2.0521712725992476E+00    8.7537594940401657E+00   -6.4409076610389455E+00
C   -6.2176570026289624E-01    8.6957608783198204E+00   -6.3369598334074269E+00
C    9.5215971078372139E-02    9.9785247541593307E+00   -6.3180334452630662E+00
C    1.5113869184846835E+00    9.9930475875332725E+00   -6.3427742549561925E+00
C   -2.0739181012027692E+00    1.1185916518189419E+01   -6.4222624118278926E+00
C   -6.5744270332999344E-01    1.1202934243871288E+01   -6.3164342254999442E+00
C    5.3107657423081732E-02    1.5295995258960376E-01   -6.4480167813202725E+00
C    1.4629267141775866E+00    1.1725103646298944E-01   -6.5381562154745270E+00
C    2.2227454952717753E+00    1.3467507321414958E+00   -6.4941588473646643E+00
C    3.6820801488873598E+00    1.2984746787303563E+00   -6.5175475484178200E+00
C    4.3435619801744476E+00    2.6091250993886024E+00   -6.4375422451546669E+00
C    5.7475526239228190E+00    2.5197239998251977E+00   -6.5701614225775087E+00
C    2.2047819904493804E+00    3.7940404595707924E+00   -6.2210245062439338E+00
C    3.6135569761344071E+00    3.8177456687701090E+00   -6.3206758322185648E+00
C    4.3429559832939484E+00    5.0397513182111640E+00   -6.3865106368174898E+00
C    5.7420651755523702E+00    5.0041932756035381E+00   -6.6015469974474588E+00
C    2.2377670439788857E+00    6.2452193484842295E+00   -6.0965334508077937E+00
C    3.6600658894412805E+00    6.2632834147962662E+00   -6.2114475848923485E+00
C    4.3434888717374207E+00    7.4876336994146415E+00   -6.2673389254787271E+00
C    5.7160430928803709E+00    7.4859503835928685E+00   -6.4783366117601311E+00
C    2.2316736155232828E+00    8.6912665024187756E+00   -6.2165181398230045E+00
C    3.6340238546673480E+00    8.7292667785602180E+00   -6.3016024550070480E+00
C    4.3675338576030338E+00    9.9785781037782701E+00   -6.4256306080205770E+00
C    5.7991029813462216E+00    9.9303922298846352E+00   -6.4735691023143582E+00
C    2.2350927675849088E+00    1.1189488449192638E+01   -6.3080020275850917E+00
C    3.6741652658171899E+00    1.1221752634442952E+01   -6.3942086843278139E+00
C    4.3320489832889617E+00    6.0103128585500411E-02   -6.5794650930142247E+00
C    5.7628636918360217E+00    4.2087112188428318E-02   -6.5471938655251289E+00
C    6.4857157866730661E+00    1.2891072439772184E+00   -6.5741107893569923E+00
C    7.8925087732107082E+00    1.2936928291224816E+00   -6.6854114848859467E+00
C    8.6147679370720329E+00    2.4994005889852109E+00   -6.6872711277739159E+00
C    1.0008365156678286E+01    2.5586838258573814E+00   -6.7053677170006720E+00
C    6.4494681214123677E+00    3.7432090826279101E+00   -6.6799386172074735E+00
C    7.8835516100320957E+00    3.7888775614550196E+00   -6.7320540659944079E+00
C    8.5623642810666567E+00    5.0200263111138312E+00   -6.7457226432474533E+00
C    1.0029125687480615E+01    5.0462063570543831E+00   -6.6727103686765341E+00
C    6.4285032209185600E+00    6.2972567125645975E+00   -6.5727778414612832E+00
C    7.8649628302705015E+00    6.2949930046401912E+00   -6.7131210794205680E+00
C    8.6136468199746989E+00    7.5370921909372743E+00   -6.6688932745358587E+00
C    1.0033339247464628E+01    7.4997071310412222E+00   -6.6440254150718419E+00
C    6.4927774987182314E+00    8.7200932683243249E+00   -6.5072307427934533E+00
C    7.8979702657986168E+00    8.7733042395839806E+00   -6.5209907266367626E+00
C    8.6229605235866416E+00    1.0009163782571555E+01   -6.4405568717201467E+00
C    1.0040384972591237E+01    9.9908729283026414E+00   -6.4110684407202649E+00
C    6.4995098695898372E+00    1.1175646306279267E+01   -6.4280328931176367E+00
C    7.9172726921986447E+00    1.1207911028085164E+01   -6.3219920083474062E+00
C    8.6568477053020487E+00    9.6005370554414771E-02   -6.5252028515093787E+00
C    1.0070501195837512E+01    6.4959163081151419E-02   -6.6025951582878637E+00
C   -2.0446047399213780E+00    1.3711162731468571E+01   -6.3657432668332294E+00
C   -6.0980206466709108E-01    1.3722193832380905E+01   -6.3586374841047180E+00
C    9.7713344281662937E-02    1.4963397735570501E+01   -6.3863393616954838E+00
C    1.5235182518990509E+00    1.4925343681196640E+01   -6.3183913286119431E+00
C   -2.0657006258697468E+00    1.6147933878319460E+01   -6.5362612712215329E+00
C   -6.2850117996082000E-01    1.6183178476067475E+01   -6.6040291531735837E+00
C    8.0528853361877706E-02    1.7382586645578282E+01   -6.7686995194988828E+00
C    1.4942543523854130E+00    1.7364542824519408E+01   -6.5804553315017129E+00
C   -2.0909027782831728E+00    1.8633877216783027E+01   -6.6588796252099334E+00
C   -6.3304003603307268E-01    1.8670927624417356E+01   -6.7856236971253177E+00
C    7.5389512022359953E-02    1.9890169088692154E+01   -6.7172793500747359E+00
C    1.4861626548971392E+00    1.9832463895186997E+01   -6.6065366933361016E+00
C   -2.0800968229932244E+00    2.1081367600193126E+01   -6.5837896660838000E+00
C   -6.6647271990145651E-01    2.1092959045098464E+01   -6.6206094869595651E+00
C    4.9713944227629411E-02    2.2320565911790165E+01   -6.6363761624916107E+00
C    1.4589670257273926E+00    2.2278283201292620E+01   -6.6504252205723740E+00
C   -2.0642243415533974E+00    2.3573640218161945E+01   -6.4941484280766142E+00
C   -6.2534865001445117E-01    2.3550804389705551E+01   -6.5751056576480957E+00
C    6.5543318229058969E-02    1.2483659271355220E+01   -6.3330221644441185E+00
C    1.5336117364566249E+00    1.2441249036788365E+01   -6.2573804143920153E+00
C    2.2114719597056074E+00    1.3667213148496426E+01   -6.1595113065693070E+00
C    3.6542379907032116E+00    1.3669207765923856E+01   -6.2027936948193858E+00
C    4.3314720274129943E+00    1.4912602858697106E+01   -6.1890798687553836E+00
C    5.7595757447623761E+00    1.4926924744432110E+01   -6.1310852744098829E+00
C    2.2154597851730764E+00    1.6165128696010633E+01   -6.3745384656949629E+00
C    3.6368917587419634E+00    1.6171469067721031E+01   -6.1896241494426762E+00
C    4.3530021303271029E+00    1.7366547766204786E+01   -6.2450162396134976E+00
C    5.7856570317335638E+00    1.7354122412860079E+01   -6.1825936668828483E+00
C    2.2148405115386129E+00    1.8604616536640499E+01   -6.5000473769251101E+00
C    3.6378432215291787E+00    1.8601348392253790E+01   -6.4806251047658892E+00
C    4.3291044790437230E+00    1.9816023268126532E+01   -6.5367337497253679E+00
C    5.7652451297577061E+00    1.9819285119640632E+01   -6.3637811373334889E+00
C    2.1874242634717844E+00    2.1056825330104907E+01   -6.6329209217727279E+00
C    3.6184708981625473E+00    2.1034295883835622E+01   -6.6170363823743825E+00
C    4.3325881913015811E+00    2.2250578229685580E+01   -6.6484108486357414E+00
C    5.7555490761514827E+00    2.2280904835832867E+01   -6.5940871048129859E+00
C    2.1910418630873751E+00    2.3538422967325257E+01   -6.6564275683095628E+00
C    3.6008303102902133E+00    2.3501568083452042E+01   -6.6173253853790346E+00
C    4.3815680770617575E+00    1.2481297083385972E+01   -6.3148331262885993E+00
C    5.8126350167802325E+00    1.2440731345124981E+01   -6.3046950570975966E+00
C    6.5070635651314319E+00    1.3671379965526480E+01   -6.1853801016562713E+00
C    7.9230060556631861E+00    1.3732192497077301E+01   -6.1988820900725807E+00
C    8.6147434790868029E+00    1.4909498154431283E+01   -6.1666034948006718E+00
C    1.0051251315619711E+01    1.4945829866870236E+01   -6.1505097274485747E+00
C    6.4903833539310245E+00    1.6126774591951211E+01   -6.0739479051971843E+00
C    7.9190220360557388E+00    1.6168046379686722E+01   -6.0324306621118309E+00
C    8.6427935913329339E+00    1.7402974444965608E+01   -6.0163164150656563E+00
C    1.0060971064902825E+01    1.7397508880947992E+01   -6.0165240907730473E+00
C    6.4783843432139028E+00    1.8596767646484373E+01   -6.2371608508031784E+00
C    7.9274835697739467E+00    1.8611351873959560E+01   -6.1726298054566460E+00
C    8.6758110079350406E+00    1.9840380868002921E+01   -6.1628719214132035E+00
C    1.0062174774577166E+01    1.9864054538231880E+01   -6.0853050255147352E+00
C    6.4631015496418511E+00    2.1061144242349553E+01   -6.3485672247529523E+00
C    7.9271239742979462E+00    2.1055964656777945E+01   -6.2985864537860632E+00
C    8.6085966804426288E+00    2.2305331403404708E+01   -6.3781482281716428E+00
C    1.0037270190880484E+01    2.2313784525797494E+01   -6.3256567675483435E+00
C    6.4753306839046321E+00    2.3512414185330314E+01   -6.5350766630233394E+00
C    7.9119902550899948E+00    2.3523439613444673E+01   -6.4436520075231050E+00
C    8.6152610853438958E+00    1.2448487700966483E+01   -6.2716591695392570E+00
C    1.0015861992778438E+01    1.2474889451612306E+01   -6.2788128911517411E+00
C    1.0748245301133224E+01    1.3291753557427535E+00   -6.7238992002089750E+00
C    1.2172384102639109E+01    1.3585932973401138E+00   -6.7227076580656790E+00
C    1.2841253058936537E+01    2.5996445564908406E+00   -6.6626974514790680E+00
C    1.4290676259814813E+01    2.5984504383879949E+00   -6.5300713224487774E+00
C    1.0732872901183681E+01    3.8004421801914066E+00   -6.6479659568431888E+00
C    1.2143448383740578E+01    3.8312113556196654E+00   -6.5579289686931297E+00
C    1.2849590820055017E+01    5.0340648016735434E+00   -6.3794996444460379E+00
C    1.4263704662416195E+01    5.0262378719922109E+00   -6.3418232052170547E+00
C    1.0721236372913319E+01    6.2833814364531877E+00   -6.4729531692150548E+00
C    1.2123730424489725E+01    6.2477907053365689E+00   -6.3668982607433930E+00
C    1.2860287216239843E+01    7.4502119101337385E+00   -6.3164135342410290E+00
C    1.4292077585323423E+01    7.4596336963339329E+00   -6.2339634685476346E+00
C    1.0716539152111682E+01    8.7520143994782806E+00   -6.4490400637411183E+00
C    1.2152474703705366E+01    8.6951644344140409E+00   -6.4148069060713286E+00
C    1.2861992164396334E+01    9.9885483977386258E+00   -6.3279903925846837E+00
C    1.4278381877772931E+01    9.9421537592936087E+00   -6.2672514149163314E+00
C    1.0733128736757376E+01    1.1212602062172595E+01   -6.2839045482963671E+00
C    1.2156494699422316E+01    1.1218388328625737E+01   -6.2190228633281075E+00
C    1.2887701887890350E+01    1.2811551778198230E-01   -6.5118915025801600E+00
C    1.4263005331313455E+01    1.3576550063631615E-01   -6.4234815275791339E+00
C    1.5003180071258686E+01    1.3639168002346387E+00   -6.5491097893946995E+00
C    1.6430846837211455E+01    1.3581056855223810E+00   -6.5260624121773940E+00
C    1.7138227351966208E+01    2.6098045631336602E+00   -6.5371587259023380E+00
C    1.8586133095403806E+01    2.5915243083811048E+00   -6.5621884166801765E+00
C    1.4992483396955590E+01    3.8042868187002536E+00   -6.4520785339012230E+00
C    1.6421717120663192E+01    3.8204634568344189E+00   -6.4462964274331931E+00
C    1.7111820288276459E+01    5.0730872183108282E+00   -6.4997039683878519E+00
C    1.8552750747405817E+01    5.0477988158732572E+00   -6.5696895980345742E+00
C    1.4989683390130734E+01    6.2496369644400112E+00   -6.3147402567879904E+00
C    1.6430700562957039E+01    6.2698562052281641E+00   -6.3928849271575796E+00
C    1.7078849281851532E+01    7.5063154674868722E+00   -6.3671476097519610E+00
C    1.8529399797277712E+01    7.5266324046783675E+00   -6.4970486372247587E+00
C    1.4989383083728741E+01    8.7166414105047032E+00   -6.2226083733134390E+00
C    1.6393439080880029E+01    8.7286650327963820E+00   -6.2336589712337371E+00
C    1.7160262077222065E+01    9.9470440037275996E+00   -6.3520968868659251E+00
C    1.8608168868683624E+01    9.9415939593949023E+00   -6.4527589576723248E+00
C    1.5038724325465616E+01    1.1142169258561758E+01   -6.2867807938728797E+00
C    1.6440803109034892E+01    1.1174358473419330E+01   -6.3644258193250289E+00
C    1.7152173826604091E+01    1.3110315317871615E-01   -6.3948978933031011E+00
C    1.8555215324937077E+01    1.3667733229396339E-01   -6.3090313378252008E+00
C    1.9302408224186753E+01    1.3311932272468052E+00   -6.4386769947502573E+00
C    2.0733462020804780E+01    1.3397054062055411E+00   -6.4458181787854123E+00
C    2.1417572504484383E+01    2.5828236076534257E+00   -6.6574729951346630E+00
C    2.2832664627557143E+01    2.5771053091876106E+00   -6.5975175216550523E+00
C    1.9276228940364525E+01    3.8028584288889280E+00   -6.6428599121832006E+00
C    2.0723895948637701E+01    3.8122460058733445E+00   -6.6650548110435492E+00
C    2.1401343867096905E+01    5.0742521131229861E+00   -6.5943668936323210E+00
C    2.2822955521890115E+01    5.0608361240254132E+00   -6.5720911998119416E+00
C    1.9251287550424831E+01    6.2646308499478751E+00   -6.5206007052737780E+00
C    2.0702283754785082E+01    6.2896921221191970E+00   -6.5724087136771026E+00
C    2.1430761977382023E+01    7.5063716533210565E+00   -6.5011471840356450E+00
C    2.2867902888080302E+01    7.4965275783937244E+00   -6.4993071582515505E+00
C    1.9321713689479861E+01    8.7124595568321919E+00   -6.4759371721109229E+00
C    2.0733853668461126E+01    8.7140439407330845E+00   -6.5269878127752268E+00
C    2.1416640462373792E+01    9.9422192354908496E+00   -6.5862748575429979E+00
C    2.2854427776699872E+01    9.9439113854212717E+00   -6.5413814217788113E+00
C    1.9340358099272549E+01    1.1190591799000265E+01   -6.4327216092726927E+00
C    2.0765345910630142E+01    1.1211326302018135E+01   -6.4928764389284845E+00
C    2.1435283075526421E+01    1.1703138678457398E-01   -6.3696270178041470E+00
C    2.2869517231267608E+01    1.5812803476238751E-01   -6.3929558468223151E+00
C    1.0757974804875360E+01    1.3713467908338417E+01   -6.2000295068112798E+00
C    1.2178083509933838E+01    1.3708184122327744E+01   -6.2478251960329185E+00
C    1.2942575929982068E+01    1.4883340591504906E+01   -6.1945703578882050E+00
C    1.4329191237283824E+01    1.4903904384963093E+01   -6.0729234518205653E+00
C    1.0746022612809920E+01    1.6152885084408886E+01   -6.0402490956086874E+00
C    1.2219155281782140E+01    1.6159809649906361E+01   -6.0154801298926373E+00
C    1.2888600698026828E+01    1.7387507118212817E+01   -5.9571721263048714E+00
C    1.4312571183160058E+01    1.7364774210972357E+01   -5.9009098227761996E+00
C    1.0784517092405864E+01    1.8620423948772398E+01   -5.9931906974670177E+00
C    1.2236884003425093E+01    1.8620971675261575E+01   -5.9576814886024971E+00
C    1.2905653506113907E+01    1.9878221942199534E+01   -5.9553337155879911E+00
C    1.4326748814506082E+01    1.9886347697836033E+01   -5.9101891304448824E+00
C    1.0761433671852853E+01    2.1103223876232256E+01   -6.1378719723060540E+00
C    1.2173198111856605E+01    2.1088019834196832E+01   -6.0282149672266945E+00
C    1.2915870354087110E+01    2.2312686255938491E+01   -6.1737738973490330E+00
C    1.4342010949400395E+01    2.2372597234976233E+01   -6.0934573635049398E+00
C    1.0750899258539892E+01    2.3509679821045019E+01   -6.3492311440023084E+00
C    1.2176420119834065E+01    2.3530163478307905E+01   -6.2959493337461971E+00
C    1.2878998385159090E+01    1.2429169573475749E+01   -6.2149202626528846E+00
C    1.4327167890836378E+01    1.2401322955420921E+01   -6.3292721821080109E+00
C    1.5055810195002570E+01    1.3632228629088601E+01   -6.2128157832760280E+00
C    1.6459385378176925E+01    1.3615022996847085E+01   -6.1800462815243646E+00
C    1.7162344198207528E+01    1.4866330102106582E+01   -6.1430557604178890E+00
C    1.8623021167459545E+01    1.4890753230085508E+01   -6.2010814821460603E+00
C    1.5007840671829731E+01    1.6144069282096513E+01   -6.0358567329689672E+00
C    1.6453207186553659E+01    1.6138745820360768E+01   -6.1378850401629101E+00
C    1.7169994373884862E+01    1.7338432808650797E+01   -6.2523152037063152E+00
C    1.8601425838053412E+01    1.7312305140858079E+01   -6.3272534124242688E+00
C    1.5040742271760374E+01    1.8600041441772557E+01   -6.0185357530278170E+00
C    1.6466213659730006E+01    1.8598256303575642E+01   -6.2146620770063503E+00
C    1.7174122433400722E+01    1.9797441684299262E+01   -6.1952661522969450E+00
C    1.8594433736510602E+01    1.9821410122563886E+01   -6.2172297244961010E+00
C    1.5057489001962839E+01    2.1104398017794768E+01   -6.1411645129013213E+00
C    1.6484168007701566E+01    2.1046316071740581E+01   -6.2007250956977495E+00
C    1.7156796507882881E+01    2.2282050750518373E+01   -6.2966881799087817E+00
C    1.8578083728856022E+01    2.2309529077540230E+01   -6.3120003683754868E+00
C    1.5020778567632576E+01    2.3557514331359869E+01   -6.2578632942573424E+00
C    1.6476184719091926E+01    2.3523909616707961E+01   -6.3439736944285201E+00
C    1.7168560899885936E+01    1.2406380086335243E+01   -6.3280327197833612E+00
C    1.8621711382301360E+01    1.2398915488712632E+01   -6.4508944665595465E+00
C    1.9301516110722968E+01    1.3658195950660581E+01   -6.3198227730196708E+00
C    2.0750987996448686E+01    1.3639651444395115E+01   -6.4470535296580769E+00
C    2.1481130670721271E+01    1.4891617868690201E+01   -6.4484632002025775E+00
C    2.2909646151781644E+01    1.4916716213004809E+01   -6.4968759030836045E+00
C    1.9315808997262437E+01    1.6087881342060282E+01   -6.3009390280660922E+00
C    2.0748608571432854E+01    1.6124808738768014E+01   -6.4490830534068095E+00
C    2.1422224075714233E+01    1.7334655207629801E+01   -6.5084676127333072E+00
C    2.2836840313975685E+01    1.7370902990054645E+01   -6.6254928176125318E+00
C    1.9300890475642635E+01    1.8568559818960878E+01   -6.2738922062311957E+00
C    2.0738323208638729E+01    1.8603011844111570E+01   -6.3913397000041794E+00
C    2.1458578953078522E+01    1.9863730384627221E+01   -6.4052006425675474E+00
C    2.2835517097477261E+01    1.9866443265098152E+01   -6.5033731777434687E+00
C    1.9297746303157446E+01    2.1066699545951934E+01   -6.3008778317773260E+00
C    2.0728591705881392E+01    2.1100477752305238E+01   -6.3746502413396442E+00
C    2.1446023907330105E+01    2.2337208615850489E+01   -6.3852426626398664E+00
C    2.2840969273777045E+01    2.2323295529170171E+01   -6.4839373601853216E+00
C    1.9284918368212924E+01    2.3554737293027099E+01   -6.2278415392680309E+00
C    2.0698922364509709E+01    2.3566017934887928E+01   -6.3195668921893509E+00
C    2.1480940902295174E+01    1.2467500381630439E+01   -6.4828629568254286E+00
C    2.2917715534780704E+01    1.2476778060789583E+01   -6.4278246372169150E+00
O    2.9146703409366546E+02    5.4241316782204159E+01    4.9809454380694357E-01
H    2.9095051103756396E+02    5.3938257930092291E+01    1.2880708235426914E+00
H    2.9182063309024579E+02    5.3319016897003628E+01    3.2033441091655046E-01
O    3.3195826259330931E+02    3.4813491995791935E+01    6.2172039091053080E+00
H    3.3223174076004062E+02    3.4677943967802150E+01    7.1864797039354640E+00
H    3.3252451183933516E+02    3.4266302238118506E+01    5.5945725910466528E+00
O    2.4621196389814310E+02    7.3704754403669654E+01   -2.9857380874462680E+00
H    2.4572289251208528E+02    7.4560870561372511E+01   -3.3202368618497125E+00
H    2.4710109456197398E+02    7.3964398249550257E+01   -2.7863319975831526E+00
O    3.4056727879638163E+02   -1.8010496174089596E+01   -3.3790257766044998E+00
H    3.4041714087857639E+02   -1.8919677809621110E+01   -3.6741612223580051E+00
H    3.4109409983434006E+02   -1.8123273511088829E+01   -2.5285463660648624E+00
O    2.1842972445856705E+02    1.1722009428997654E+02   -2.4221396613585204E+00
H    2.1932429628118868E+02    1.1760059495113404E+02   -2.5755448214733048E+00
H    2.1776246800365448E+02    1.1764796052501815E+02   -3.0125136430877109E+00
O    2.7072177001040268E+02    4.4778115176214177E+00    4.7405325943880081E+00
H    2.7030895143062151E+02    4.6292093274189270E+00    3.9075570222042120E+00
H    2.6993140307515642E+02    4.6239729921762978E+00    5.3170268998075567E+00
O    3.0900623231311357E+02    3.3895446191003408E+01    1.1722706559538160E+01
H    3.0955585157347099E+02    3.4467518138112077E+01    1.1184335857320551E+01
H    3.0884388150887645E+02    3.4610640269763088E+01    1.2461628645232476E+01
O    2.8272210062754624E+02   -7.9133777996169821E+00    2.6262759917052397E-01
H    2.8320867089634567E+02   -8.7492142723421669E+00    3.6238540556553012E-01
H    2.8177153084274119E+02   -8.1826650624241264E+00    4.7606556800107065E-02
O    1.8618275242115917E+02    1.0117973380884467E+02    9.1752006732941958E+00
H    1.8640713359270782E+02    1.0026699330993847E+02    8.8951253807671105E+00
H    1.8554906348016277E+02    1.0115718617429523E+02    9.9493309665404279E+00
O    3.4172503937464711E+02    7.4516887384675400E+01    3.2718337145950156E+00
H    3.4191514757970083E+02    7.5119895242616323E+01    4.0300637026201391E+00
H    3.4127247640762755E+02    7.4940247725174416E+01    2.5571459688084639E+00
O    2.5361855561863413E+02    5.5697089713518139E+01    3.8042359509628705E+00
H    2.5408521243427614E+02    5.4826920962653404E+01    3.5773539519708915E+00
H    2.5403053544544784E+02    5.5961694940502468E+01    4.6849907264688353E+00
O    2.2632492412816330E+02    5.8770029462067754E+01    2.9083150668005278E+00
H    2.2723614585761433E+02    5.9015580276400620E+01    2.6706158716131623E+00
H    2.2590846365428533E+02    5.9576048272261168E+01    3.3361298820504506E+00
O    2.6573546419505391E+02   -1.3066730216112779E+01    1.1407444014375335E+01
H    2.6569319359684977E+02   -1.3469337031964358E+01    1.2296197965250904E+01
H    2.6552838626918009E+02   -1.3763102431766134E+01    1.0690186794758217E+01
O    2.9792096187033366E+02   -1.0332428851499758E+02    3.4143427973054363E+00
H    2.9853292800298976E+02   -1.0257091362772597E+02    3.7026466648737859E+00
H    2.9747704142341269E+02   -1.0354676614960680E+02    4.2627627294512314E+00
O    1.7393530521306036E+02    1.4433878939190964E+02    4.2224530045016460E+00
H    1.7385757792105022E+02    1.4420076446121575E+02    5.2273411980845381E+00
H    1.7446327492991290E+02    1.4349985714211792E+02    3.9776315306403007E+00
O    3.0905871070178046E+02    1.0006220437678597E+02    1.9848508357438965E+00
H    3.0852659882796308E+02    9.9650142478641342E+01    1.2786831769808862E+00
H    3.0897079220402912E+02    9.9424320569884401E+01    2.7548970641222348E+00
O    2.4263092817886204E+02    7.0890877491299619E+01    6.7847779042954715E+00
H    2.4237613912336047E+02    6.9955206255894922E+01    7.0412460389864115E+00
H    2.4231832260997498E+02    7.1082623298818021E+01    5.9078706814086255E+00
O    2.4931697264165271E+02    7.1988337539000725E+01    2.7920978604112303E+00
H    2.4922472785562513E+02    7.2026074758186184E+01    1.8306083643984936E+00
H    2.4988506912457018E+02    7.1175423979155198E+01    3.0175567538851156E+00
O    2.2010714695642804E+02    4.9217704831948808E+01    8.0281921842171684E+00
H    2.2095275051752049E+02    4.8974659943838184E+01    8.5669773876898745E+00