 # Version information for this restart file 
 # current date 2020-01-19 14:05:21.692
 # current working dir /scratch/snx3000/gtocci/gtocci/MEMBRANES/AIMD_US_IONS_BN/aimd_us_iodide/us_16
 # Program compiled at                              Fri Nov 22 15:19:42 CET 2019
 # Program compiled on                                                  daint102
 # Program compiled for                                   CRAY_XC50-gfortran_gpu
 # Source code revision number                                       git:a698b45
 &GLOBAL
   PRINT_LEVEL  LOW
   PROJECT_NAME BNS
   RUN_TYPE  MD
   WALLTIME 86400
 &END GLOBAL
 &MOTION
   &MD
     ENSEMBLE  NVT
     STEPS  2000
     TIMESTEP     9.9999999999999989E-01
     STEP_START_VAL  45030
     TIME_START_VAL     4.5029999999984459E+04
     ECONS_START_VAL    -8.4828156721161904E+03
     TEMPERATURE     3.0000000000000000E+02
     TEMP_KIND  T
     &BAROSTAT
       PRESSURE     1.0000000000000000E+00
       TIMECON     9.9999999999999986E+01
       VIRIAL  Z
     &END BAROSTAT
     &THERMOSTAT
       TYPE  NOSE
       REGION  GLOBAL
       &NOSE
         LENGTH  4
         TIMECON     9.9999999999999986E+01
         MTS  2
         &COORD
               4.2686508381914851E-01    1.3820471980518501E+01   -4.2654578983705198E+00    8.7607941674535965E+00
         &END COORD
         &VELOCITY
              -2.1667539119281397E-06    3.9929682282043450E-04   -4.2777208297683746E-04    1.9447205431363852E-04
         &END VELOCITY
         &MASS
               7.0145132684705392E+07    1.6237299232570693E+04    1.6237299232570693E+04    1.6237299232570693E+04
         &END MASS
         &FORCE
              -3.2924534757690331E-09   -3.8228380585927595E-08    1.0092793886438839E-07    1.2447894112423724E-07
         &END FORCE
       &END NOSE
     &END THERMOSTAT
     &AVERAGES  T
       &RESTART_AVERAGES
         ITIMES_START  1
         AVECPU     2.3585946797112836E+01
         AVEHUGONIOT     0.0000000000000000E+00
         AVETEMP_BARO     0.0000000000000000E+00
         AVEPOT    -8.4857805212299772E+03
         AVEKIN     2.0522462066217653E+00
         AVETEMP     3.0002190893802737E+02
         AVEKIN_QM     0.0000000000000000E+00
         AVETEMP_QM     0.0000000000000000E+00
         AVEVOL     2.2086622704881505E+05
         AVECELL_A     4.9287836997924956E+01
         AVECELL_B     4.7426456757034558E+01
         AVECELL_C     9.4486306644280020E+01
         AVEALPHA     9.0000000000000000E+01
         AVEBETA     9.0000000000000000E+01
         AVEGAMMA     9.0000000000000000E+01
         AVE_ECONS     6.3439132031675094E+01
         AVE_PRESS     0.0000000000000000E+00
         AVE_PXX     0.0000000000000000E+00
       &END RESTART_AVERAGES
     &END AVERAGES
     &PRINT
       &TEMP_KIND  SILENT
       &END TEMP_KIND
     &END PRINT
   &END MD
   &FREE_ENERGY
     &METADYN
       MIN_DISP    -1.0000000000000000E+00
       OLD_HILL_NUMBER  0
       OLD_HILL_STEP  0
       DO_HILLS  F
       STEP_START_VAL  45030
       NHILLS_START_VAL  0
       &METAVAR
         SCALE     1.0000000000000000E+00
         COLVAR  1
       &END METAVAR
       &PRINT
         &COLVAR  SILENT
           COMMON_ITERATION_LEVELS  3
           &EACH
             MD  1
           &END EACH
         &END COLVAR
       &END PRINT
     &END METADYN
   &END FREE_ENERGY
   &CONSTRAINT
     &COLLECTIVE
       COLVAR  1
       INTERMOLECULAR  T
       &RESTRAINT
         K     4.4625385281452931E-04
       &END RESTRAINT
     &END COLLECTIVE
     &COLVAR_RESTART
           1.5340142807037365E+01
     &END COLVAR_RESTART
   &END CONSTRAINT
   &PRINT
     &TRAJECTORY  SILENT
       &EACH
         MD  1
       &END EACH
     &END TRAJECTORY
     &VELOCITIES  SILENT
       &EACH
         MD  1
       &END EACH
     &END VELOCITIES
     &FORCES  SILENT
       UNIT eV*angstrom^-1
       &EACH
         MD  1
       &END EACH
     &END FORCES
     &RESTART  SILENT
       &EACH
         MD  1
       &END EACH
     &END RESTART
     &RESTART_HISTORY  SILENT
       &EACH
         MD  100
       &END EACH
     &END RESTART_HISTORY
   &END PRINT
 &END MOTION
 &FORCE_EVAL
   METHOD  QS
   &DFT
     BASIS_SET_FILE_NAME /users/gtocci/scratch_daint_3000/data_cp2k//BASIS_MOLOPT
     POTENTIAL_FILE_NAME /users/gtocci/scratch_daint_3000/data_cp2k//GTH_POTENTIALS
     WFN_RESTART_FILE_NAME ./BNS-RESTART.wfn
     CHARGE  -1
     &SCF
       MAX_SCF  10
       EPS_SCF     9.9999999999999995E-07
       SCF_GUESS  RESTART
       &OT  T
         MINIMIZER  DIIS
         PRECONDITIONER  FULL_KINETIC
       &END OT
       &OUTER_SCF  T
         EPS_SCF     9.9999999999999995E-07
         MAX_SCF  30
       &END OUTER_SCF
       &PRINT
         &RESTART  SILENT
           ADD_LAST  NUMERIC
           &EACH
             QS_SCF  50
           &END EACH
         &END RESTART
       &END PRINT
     &END SCF
     &QS
       MAP_CONSISTENT  T
       EXTRAPOLATION  ASPC
       EXTRAPOLATION_ORDER  4
     &END QS
     &MGRID
       NGRIDS  5
       CUTOFF     4.6000000000000000E+02
     &END MGRID
     &XC
       DENSITY_CUTOFF     1.0000000000000000E-10
       GRADIENT_CUTOFF     1.0000000000000000E-10
       TAU_CUTOFF     1.0000000000000000E-10
       &XC_GRID
         XC_DERIV  SPLINE2_SMOOTH
       &END XC_GRID
       &XC_FUNCTIONAL  NO_SHORTCUT
         &LIBXC  T
           FUNCTIONAL XC_GGA_X_OPTB88_VDW
         &END LIBXC
         &VWN  T
         &END VWN
       &END XC_FUNCTIONAL
       &VDW_POTENTIAL
         POTENTIAL_TYPE  NON_LOCAL
         &NON_LOCAL
           TYPE  DRSLL
           VERBOSE_OUTPUT  T
           KERNEL_FILE_NAME /users/gtocci/scratch_daint_3000/data_cp2k//vdW_kernel_table.dat
           CUTOFF     3.6000000000000000E+02
         &END NON_LOCAL
       &END VDW_POTENTIAL
     &END XC
     &REAL_TIME_PROPAGATION
       INITIAL_WFN  SCF_WFN
     &END REAL_TIME_PROPAGATION
     &PRINT
       &MULLIKEN  SILENT
         FILENAME =BNS.mulliken
       &END MULLIKEN
     &END PRINT
   &END DFT
   &SUBSYS
     &CELL
       A     2.6082000000000019E+01    0.0000000000000000E+00    0.0000000000000000E+00
       B     0.0000000000000000E+00    2.5097000000000001E+01    0.0000000000000000E+00
       C     0.0000000000000000E+00    0.0000000000000000E+00    5.0000000000000028E+01
       MULTIPLE_UNIT_CELL  1 1 1
     &END CELL
     &COORD
B   -7.9704159259272043E+00    3.4796520869577128E+00   -3.4720192291165006E+01
B   -5.8093408099032251E+00    4.7118627695831528E+00   -3.4985335224173959E+01
B   -7.9553320424976341E+00    6.0095545113768729E+00   -3.4833985558406120E+01
B   -5.7244277383292257E+00    7.2330588199832633E+00   -3.5013724502138381E+01
B   -7.9268961294986173E+00    8.4591657379340859E+00   -3.5070643054202151E+01
B   -5.7447989714108205E+00    9.7536977259467665E+00   -3.5099248867575056E+01
B   -7.9354908652899327E+00    1.0951247753103099E+01   -3.4989682127778231E+01
B   -5.6655818866655157E+00    1.2179502556947911E+01   -3.5032519286195701E+01
B   -7.8661620117601716E+00    1.3413156126215815E+01   -3.4953478779813828E+01
B   -5.7436025517799312E+00    1.4768767838226880E+01   -3.4944348936141012E+01
B   -3.6909733449861610E+00    3.4554548547902870E+00   -3.4987738000684004E+01
B   -1.4479011185487045E+00    4.6949491765850224E+00   -3.5004284095418079E+01
B   -3.5740327023434797E+00    5.9956939912157940E+00   -3.5147960081957265E+01
B   -1.3789652047596650E+00    7.1977438669771674E+00   -3.5033136652376932E+01
B   -3.5512801515065258E+00    8.4559886439316347E+00   -3.4999807529724158E+01
B   -1.3512049771296304E+00    9.6877217470941748E+00   -3.4876383391316381E+01
B   -3.5626751181072400E+00    1.0997351498253229E+01   -3.4864583268879521E+01
B   -1.4139163553519469E+00    1.2247285264850197E+01   -3.4970370685803225E+01
B   -3.6012270309681922E+00    1.3533129777496686E+01   -3.4860638874780989E+01
B   -1.4498785114438322E+00    1.4774196373410451E+01   -3.4812287103148840E+01
B    7.5149231068990530E-01    3.4248361440473878E+00   -3.4844489413399373E+01
B    2.9322355563778628E+00    4.7157849116566979E+00   -3.4888896896632069E+01
B    7.5590699189151578E-01    5.9277360246232078E+00   -3.5032008610375911E+01
B    2.9043819980551002E+00    7.2068258291125815E+00   -3.4933334840240967E+01
B    7.7499731410818062E-01    8.4753062909630383E+00   -3.5019011262503859E+01
B    2.9338720148089621E+00    9.7334423414814033E+00   -3.4810023626156010E+01
B    7.2004236990462189E-01    1.0975335463364452E+01   -3.4881692256366819E+01
B    2.9258438579953370E+00    1.2224809585763788E+01   -3.4649527291985848E+01
B    7.9585946635625104E-01    1.3533551662090957E+01   -3.4865505519016615E+01
B    2.9030054369308695E+00    1.4716676013880271E+01   -3.4735305577879153E+01
N   -6.4947462338354791E+00    3.4748260806384148E+00   -3.4775537094249955E+01
N   -4.3135092510077291E+00    4.6871468328647881E+00   -3.5078546572920708E+01
N   -6.4901070512475085E+00    5.9949042568883151E+00   -3.4934213123239566E+01
N   -4.3002541363482205E+00    7.2265898995791096E+00   -3.5146885858874860E+01
N   -6.5059017964959667E+00    8.4917815832564596E+00   -3.5221345041657209E+01
N   -4.3284825599854440E+00    9.7639215736509275E+00   -3.4896481004194349E+01
N   -6.4932711739129001E+00    1.0991929692071247E+01   -3.5109402628907596E+01
N   -4.1959247136691999E+00    1.2216760361709570E+01   -3.4917568748036210E+01
N   -6.3887219257234182E+00    1.3476466429925695E+01   -3.4996244665867387E+01
N   -4.2969036849599931E+00    1.4796861912097235E+01   -3.4877637340875602E+01
N   -2.2094708578518438E+00    3.4082805586172431E+00   -3.4987383470188234E+01
N    3.5491379269287998E-02    4.6849474265007762E+00   -3.4991770953012832E+01
N   -2.1607051812821219E+00    5.9509750478919310E+00   -3.4942256871794761E+01
N    5.3661957454309087E-02    7.2036019171161429E+00   -3.5046661302799762E+01
N   -2.1027683577400427E+00    8.4658587332039499E+00   -3.4975075141996143E+01
N    5.6809699495830958E-02    9.6948554882006377E+00   -3.4882325616050608E+01
N   -2.1192177859820713E+00    1.0961777911582109E+01   -3.4897826467515905E+01
N    4.7112113103016572E-02    1.2270553653506832E+01   -3.4981721575073216E+01
N   -2.1335758743718420E+00    1.3542126931350500E+01   -3.4796820515114561E+01
N    1.1971912561207620E-02    1.4741893569979291E+01   -3.4834454774357567E+01
N    2.1830932464833808E+00    3.4631639865375470E+00   -3.4754769110913067E+01
N    4.3678438167644531E+00    4.7465825981286871E+00   -3.4840876979580422E+01
N    2.1937253776194741E+00    5.9191676360587229E+00   -3.5111619960513664E+01
N    4.3706374657860838E+00    7.2279975390475633E+00   -3.4913002037745898E+01
N    2.2002183337986607E+00    8.4487449890112689E+00   -3.5005966150244276E+01
N    4.3806883295055856E+00    9.6890203201269678E+00   -3.4908660646213455E+01
N    2.1646785721611668E+00    1.0984071098702238E+01   -3.4634075835088503E+01
N    4.3295412245772980E+00    1.2203411263173667E+01   -3.4557150018378927E+01
N    2.2094973088789494E+00    1.3493389726175572E+01   -3.4684619890823086E+01
N    4.3401079251546095E+00    1.4743685748656128E+01   -3.4743486901618027E+01
B   -7.9354065043167106E+00    1.5954553159566570E+01   -3.4870951669734978E+01
B   -5.7615494284034909E+00    1.7279582156218495E+01   -3.4621818140671486E+01
B   -7.9227124184088451E+00    1.8445308394976408E+01   -3.4395223070050790E+01
B   -5.7927517305398153E+00    1.9780134201243040E+01   -3.4489628818304766E+01
B   -7.9993105824737540E+00    2.0918724305386267E+01   -3.4566849529463532E+01
B   -5.8026219517318616E+00    2.2260193871830285E+01   -3.4607022795571297E+01
B   -7.9414173680749123E+00    2.3458279122088829E+01   -3.4706534591679997E+01
B   -5.8087253096928810E+00    2.4831639108376180E+01   -3.4892746883462479E+01
B   -7.9870814489880493E+00    2.6042263281263217E+01   -3.4906584656789704E+01
B   -5.8026745587618525E+00    2.7315279104473671E+01   -3.4949592066242175E+01
B   -3.5335258821392928E+00    1.6041328500858597E+01   -3.4759446820332300E+01
B   -1.4384056076597933E+00    1.7313146039473132E+01   -3.4788003227593350E+01
B   -3.5918015564508647E+00    1.8583102248721595E+01   -3.4713518073909228E+01
B   -1.4504619776444174E+00    1.9861898602274472E+01   -3.4793861587894156E+01
B   -3.6017614172832406E+00    2.1037067298343558E+01   -3.4651458520998474E+01
B   -1.4577145722430016E+00    2.2314488241397420E+01   -3.4678131749791156E+01
B   -3.6212894309807071E+00    2.3528126415683872E+01   -3.4749592537839249E+01
B   -1.4333976258469492E+00    2.4850647017627349E+01   -3.4784480063712650E+01
B   -3.6523351730192792E+00    2.6026161087787866E+01   -3.4920449078578507E+01
B   -1.4495677281527239E+00    2.7284559382683266E+01   -3.4987182765210733E+01
B    7.0503167040597159E-01    1.6006368484529464E+01   -3.4653686578318037E+01
B    2.8537152462721198E+00    1.7182194129175020E+01   -3.4774201759034398E+01
B    7.8747378008387592E-01    1.8503627136884770E+01   -3.4743978989499489E+01
B    2.8867589704355572E+00    1.9773614429849111E+01   -3.4503118161446601E+01
B    7.9080650136400776E-01    2.1031238880711232E+01   -3.4570543950819058E+01
B    2.9794869562707174E+00    2.2249693505529354E+01   -3.4428856602943711E+01
B    7.5307034270505091E-01    2.3535030141274408E+01   -3.4567242302694645E+01
B    2.9296369808189380E+00    2.4770949730495317E+01   -3.4627172732079970E+01
B    7.5400110095259076E-01    2.6047537182372992E+01   -3.4687841054439339E+01
B    2.9465842455364961E+00    2.7306559483595066E+01   -3.4681375963585474E+01
N   -6.5047614741846989E+00    1.6043570414489601E+01   -3.4941294740956515E+01
N   -4.3020419843960651E+00    1.7283274433457304E+01   -3.4655574104019848E+01
N   -6.4995252445567857E+00    1.8517232605841961E+01   -3.4335656042788550E+01
N   -4.3427572120158349E+00    1.9804093786129616E+01   -3.4663418012267556E+01
N   -6.5433295001684515E+00    2.1007176981283518E+01   -3.4539042700824155E+01
N   -4.3321294033109465E+00    2.2272731849110954E+01   -3.4659409438698255E+01
N   -6.5089249872823025E+00    2.3511545433086422E+01   -3.4794044700449753E+01
N   -4.3398087141528592E+00    2.4769534428912152E+01   -3.4905702663640902E+01
N   -6.5195130263702925E+00    2.6068621900177547E+01   -3.4938309628714777E+01
N   -4.3559154354513376E+00    2.7290378546518617E+01   -3.5006705355611864E+01
N   -2.0895241494201025E+00    1.6052837624921569E+01   -3.4736343406465338E+01
N    3.8226948969154240E-02    1.7293097873622006E+01   -3.4824588176727204E+01
N   -2.1522642543308828E+00    1.8555921753488700E+01   -3.4881245727592137E+01
N    3.4662112209945268E-03    1.9813643238298173E+01   -3.4747650454317458E+01
N   -2.1409432114027971E+00    2.1070755087912495E+01   -3.4715491031369339E+01
N   -6.4446815531643922E-04    2.2312161798922546E+01   -3.4522826097187682E+01
N   -2.1545436944669105E+00    2.3565756751787934E+01   -3.4689915753911691E+01
N    2.1113189290133994E-02    2.4809495359082405E+01   -3.4601503270236790E+01
N   -2.2006110998959141E+00    2.6028121800122488E+01   -3.5002203057838983E+01
N    6.4640903752273904E-03    2.7272687551714668E+01   -3.4816591315515936E+01
N    2.1556879869347862E+00    1.5986111116375145E+01   -3.4567706352153017E+01
N    4.2661478132297752E+00    1.7237911784645735E+01   -3.4987564625650947E+01
N    2.2058449877480286E+00    1.8491562452859249E+01   -3.4748048838553729E+01
N    4.3609658617063678E+00    1.9705887417794735E+01   -3.4514125683815308E+01
N    2.2278884426478855E+00    2.1023180921764425E+01   -3.4343862695460160E+01
N    4.4000679406387722E+00    2.2256039507714782E+01   -3.4456054497006612E+01
N    2.2334954190315193E+00    2.3531563071339157E+01   -3.4566757743920583E+01
N    4.3753917713890367E+00    2.4813010195895608E+01   -3.4476418899399327E+01
N    2.1912480800881733E+00    2.6076955631277436E+01   -3.4783360245194089E+01
N    4.4038579141971663E+00    2.7324391967283340E+01   -3.4516869402378724E+01
B    5.1237509429499255E+00    3.5052394793463892E+00   -3.4612319574483685E+01
B    7.2625446758640857E+00    4.7204574530052303E+00   -3.4698434923723141E+01
B    5.1086704864610537E+00    5.9794091740152719E+00   -3.4954944172937516E+01
B    7.2416177583440433E+00    7.2339304923649719E+00   -3.4953202684280868E+01
B    5.0805028740505325E+00    8.4401590922984688E+00   -3.4871962720929425E+01
B    7.2336236016250464E+00    9.6925534427212288E+00   -3.4763564481269484E+01
B    5.0922709141660949E+00    1.1001310852377506E+01   -3.4717972279859488E+01
B    7.2662641487803334E+00    1.2233753074241228E+01   -3.4621786367384104E+01
B    5.0255105991046731E+00    1.3505737948656499E+01   -3.4648879893722231E+01
B    7.2590004765735392E+00    1.4768713274209373E+01   -3.4750537830377731E+01
B    9.4693935592502587E+00    3.4710262103088527E+00   -3.4415107247207395E+01
B    1.1571008491292373E+01    4.6821625825917907E+00   -3.4654632348851493E+01
B    9.3808916616162765E+00    5.9548961769060194E+00   -3.4600732756813827E+01
B    1.1644663835228585E+01    7.1741478931346219E+00   -3.4755995834166448E+01
B    9.4397621623949597E+00    8.4758137181657922E+00   -3.4862735815023008E+01
B    1.1634871166550584E+01    9.7087250761866422E+00   -3.4887119296771047E+01
B    9.3932568895919726E+00    1.0942128638312235E+01   -3.4759451775799512E+01
B    1.1565199526366344E+01    1.2306003988438336E+01   -3.4887904760149134E+01
B    9.3951679341513721E+00    1.3517040165743463E+01   -3.4724054908772096E+01
B    1.1563289943034563E+01    1.4779620534725039E+01   -3.4842782253865757E+01
B    1.3795240333705824E+01    3.4579780373405833E+00   -3.4530359543195161E+01
B    1.5947596070068967E+01    4.7048559040012936E+00   -3.4726987535580548E+01
B    1.3816963264450655E+01    5.9343099182526071E+00   -3.4638188598961072E+01
B    1.5941462379357450E+01    7.1698137052453417E+00   -3.4865325935927601E+01
B    1.3828419058925119E+01    8.3967445101997686E+00   -3.4965613919391721E+01
B    1.5971875417501767E+01    9.7149067014655532E+00   -3.5039302417037227E+01
B    1.3757608398054213E+01    1.0917055381340008E+01   -3.5071063832920764E+01
B    1.5911109157245392E+01    1.2185128127625061E+01   -3.5044245418798809E+01
B    1.3778318381937774E+01    1.3452585860703946E+01   -3.4911648231216631E+01
B    1.5981532023618541E+01    1.4672262566815915E+01   -3.4889961898842913E+01
N    6.5937873403804774E+00    3.4556544056603125E+00   -3.4610831509046839E+01
N    8.6819796657050787E+00    4.7189755151566501E+00   -3.4399364543982259E+01
N    6.5468748696761638E+00    5.9485277919466855E+00   -3.4978997152420384E+01
N    8.6873296309481631E+00    7.2115170030432818E+00   -3.4936247201420542E+01
N    6.5274870266504594E+00    8.4650512932311486E+00   -3.4860650495426164E+01
N    8.6584284011212489E+00    9.6925374786368881E+00   -3.4859249929609433E+01
N    6.5011079476609472E+00    1.0979310583316858E+01   -3.4621871532646907E+01
N    8.7043084965922439E+00    1.2256639008901068E+01   -3.4537043183649466E+01
N    6.5679093412241052E+00    1.3500516807635643E+01   -3.4611418319623603E+01
N    8.7307546802908167E+00    1.4787015333247341E+01   -3.4869410774602002E+01
N    1.0852478483266969E+01    3.4289889959762334E+00   -3.4580306937415813E+01
N    1.3042630167189946E+01    4.6792327875356090E+00   -3.4625857983490583E+01
N    1.0811321405883245E+01    5.9386357485316346E+00   -3.4655605539129006E+01
N    1.3076328335485295E+01    7.1766954946562675E+00   -3.4744418038652341E+01
N    1.0917165996587181E+01    8.4435156661523241E+00   -3.4731090617768388E+01
N    1.3062147131549700E+01    9.6523161225892959E+00   -3.5109894314201171E+01
N    1.0874964886141219E+01    1.1024161496000174E+01   -3.4777976466210625E+01
N    1.3001254132531541E+01    1.2200215368009829E+01   -3.4930595177092563E+01
N    1.0833458046702230E+01    1.3530667489600940E+01   -3.4844458813869409E+01
N    1.3101387468385973E+01    1.4703793714630429E+01   -3.4849302877725030E+01
N    1.5220340202136001E+01    3.4452997723572283E+00   -3.4715456939252540E+01
N    1.7421437429869801E+01    4.7334756805033367E+00   -3.4737854864849524E+01
N    1.5264331862294686E+01    5.9563291577802433E+00   -3.4719706422335989E+01
N    1.7386852075788820E+01    7.2201691187115742E+00   -3.4954576824101252E+01
N    1.5211298885581623E+01    8.4545677826747365E+00   -3.5112150496453317E+01
N    1.7410951045899477E+01    9.6929308933391081E+00   -3.4885325126763895E+01
N    1.5194724633176980E+01    1.0952080129599219E+01   -3.5113956819990726E+01
N    1.7423418842645926E+01    1.2199788415107372E+01   -3.5039116141977907E+01
N    1.5262154663728081E+01    1.3441886693606831E+01   -3.4900526130382580E+01
N    1.7464114810612333E+01    1.4717440633750973E+01   -3.5055481377425643E+01
B    5.0201763603795113E+00    1.6037812301641328E+01   -3.4874916466704761E+01
B    7.2438742402723681E+00    1.7203601580957287E+01   -3.4872310604343419E+01
B    5.0646158100522918E+00    1.8480074687828917E+01   -3.4789049101222879E+01
B    7.2828909051554742E+00    1.9763979326971022E+01   -3.4739912262529224E+01
B    5.1303418494584223E+00    2.0978267732498921E+01   -3.4408740145155257E+01
B    7.2049458998721301E+00    2.2253193953021665E+01   -3.4364487387102820E+01
B    5.0607731804661764E+00    2.3500229842112535E+01   -3.4463199338116368E+01
B    7.2218037966442408E+00    2.4811233451075392E+01   -3.4323155708521384E+01
B    5.1256252223901884E+00    2.6073753717800933E+01   -3.4416408514593591E+01
B    7.2681822345354581E+00    2.7295124491558859E+01   -3.4367594688041123E+01
B    9.4492819102580263E+00    1.6035359201455083E+01   -3.4879788073688346E+01
B    1.1592233135459132E+01    1.7277361637211936E+01   -3.4794851338408165E+01
B    9.4713338664392257E+00    1.8541274981629897E+01   -3.4930527106024236E+01
B    1.1667020953271765E+01    1.9806835448471130E+01   -3.4721153011505557E+01
B    9.4477226337830800E+00    2.1017671057705638E+01   -3.4552174149527744E+01
B    1.1577199473478881E+01    2.2233390571590547E+01   -3.4454737675955450E+01
B    9.4008625037186988E+00    2.3466632027673384E+01   -3.4334418302795818E+01
B    1.1629361968078138E+01    2.4700015026819287E+01   -3.4338756915755113E+01
B    9.3797473901658481E+00    2.6032132353057992E+01   -3.4254064021670153E+01
B    1.1596616910899835E+01    2.7287550155311369E+01   -3.4417492467582441E+01
B    1.3831391643567786E+01    1.5997584481973552E+01   -3.4787587384386995E+01
B    1.5990787468303658E+01    1.7212090918593269E+01   -3.4555868728847194E+01
B    1.3802621089573085E+01    1.8448204126454726E+01   -3.4581177882301930E+01
B    1.5915666750958028E+01    1.9731608806688470E+01   -3.4542118201466309E+01
B    1.3758952902085197E+01    2.1001064090520668E+01   -3.4459047484275338E+01
B    1.5920242276595433E+01    2.2250697438374019E+01   -3.4616439555828372E+01
B    1.3743843941576651E+01    2.3504890652625527E+01   -3.4523236759003481E+01
B    1.5943262730401690E+01    2.4697310631828429E+01   -3.4625512033185721E+01
B    1.3756180791126399E+01    2.6002076354303540E+01   -3.4440111434241899E+01
B    1.5925382612265011E+01    2.7273412278512623E+01   -3.4669090476084492E+01
N    6.4586092960492234E+00    1.6047708216726441E+01   -3.4743797210671389E+01
N    8.7234224954534429E+00    1.7264125909093792E+01   -3.4996156453106487E+01
N    6.5656276390272650E+00    1.8493657843815726E+01   -3.4807330064311536E+01
N    8.7735822356177291E+00    1.9778186385987794E+01   -3.4820279525533572E+01
N    6.5315072508836547E+00    2.1018320614074565E+01   -3.4431603471362564E+01
N    8.6638433225854765E+00    2.2250256924679132E+01   -3.4315685893216873E+01
N    6.4976200200337937E+00    2.3491156356306856E+01   -3.4323106158135275E+01
N    8.6757317655873809E+00    2.4794494227261598E+01   -3.4286038529504651E+01
N    6.5804467483281712E+00    2.6050868425710760E+01   -3.4292551423620459E+01
N    8.7215999838283462E+00    2.7275636661476899E+01   -3.4309253106161982E+01
N    1.0912291809019786E+01    1.6059781949303421E+01   -3.4821066931668135E+01
N    1.3060386159100593E+01    1.7223282398672350E+01   -3.4621232051782016E+01
N    1.0888110571533298E+01    1.8555419379290846E+01   -3.4956187075030527E+01
N    1.3087623187261986E+01    1.9734819889483610E+01   -3.4523748911798876E+01
N    1.0847741566766375E+01    2.1019082681132048E+01   -3.4490882941396613E+01
N    1.3002844454456932E+01    2.2245769716039025E+01   -3.4467850673739719E+01
N    1.0870896260461693E+01    2.3515295127108125E+01   -3.4387698284107074E+01
N    1.3026606936073017E+01    2.4770623304298081E+01   -3.4392295768349904E+01
N    1.0866503147884755E+01    2.5985027922169674E+01   -3.4214250669017417E+01
N    1.3034397480529758E+01    2.7307139890531168E+01   -3.4415024961672593E+01
N    1.5296242611377298E+01    1.5929209079266688E+01   -3.4734117812402239E+01
N    1.7423932304234558E+01    1.7162453412353887E+01   -3.4496044839314450E+01
N    1.5230540128719003E+01    1.8488237194154983E+01   -3.4539996268859426E+01
N    1.7354885154428771E+01    1.9707777461540331E+01   -3.4442311789184991E+01
N    1.5193650514816728E+01    2.0983805123443343E+01   -3.4553306550094824E+01
N    1.7380835764286154E+01    2.2186062196429283E+01   -3.4647819571229036E+01
N    1.5179537975727227E+01    2.3499223691109126E+01   -3.4535533061957437E+01
N    1.7386433480742973E+01    2.4721805400599823E+01   -3.4752812039161284E+01
N    1.5205885068997180E+01    2.5992689195371046E+01   -3.4659792359233805E+01
N    1.7391852940447468E+01    2.7291330109505601E+01   -3.4680742883547111E+01
O   -2.1879466031499861E+00    5.0588322915368060E+01   -3.1730344409316576E+01
H   -2.4625183195171667E+00    4.9633850778232485E+01   -3.2003809247317527E+01
H   -1.8119543002242577E+00    5.0534175821926937E+01   -3.0826367743027806E+01
O    8.0104059535671496E+01    2.3265522589457238E+01   -1.9134289569255785E+01
H    8.0904237449235467E+01    2.3171835609962539E+01   -1.8570250922286839E+01
H    7.9298195356565671E+01    2.2938465086108401E+01   -1.8704212038676285E+01
O    6.7890084685226711E+01   -3.6000886439109522E+01   -3.0358017409794314E+01
H    6.6991094369287751E+01   -3.6182319003834742E+01   -3.0714684866254505E+01
H    6.8462606139449676E+01   -3.5893885369836489E+01   -3.1176480015748592E+01
O    1.1259063800810985E+01    6.7921384326784391E+01   -3.1498675427843395E+01
H    1.2232901298729132E+01    6.7750322565983126E+01   -3.1619992381068752E+01
H    1.1286976212413334E+01    6.8845195131191687E+01   -3.1162359431336775E+01
O   -2.3809137621572599E+01    2.7225507964284834E+01   -2.0490200022958842E+01
H   -2.3003382165864682E+01    2.7522522581472746E+01   -1.9882310603439151E+01
H   -2.3550213836861520E+01    2.6363955869304586E+01   -2.0786148144195575E+01
O    8.3127822511995319E+01    2.3578856842773295E+01   -2.5053826491381194E+01
H    8.2716439950923785E+01    2.2790163122229529E+01   -2.4738828901476182E+01
H    8.4109749785911930E+01    2.3422340894981190E+01   -2.5331206210917404E+01
O    9.1946991571675625E+01   -1.9778339349950414E+01   -2.8552438130507838E+01
H    9.2728312371261296E+01   -2.0204328493255144E+01   -2.8133482386576642E+01
H    9.1887008367433594E+01   -2.0062495458294393E+01   -2.9510040833798019E+01
O    2.3958984147520258E+01    5.2066838941105409E+01   -1.7488473321528605E+01
H    2.4750462703894275E+01    5.2250933208614327E+01   -1.8070836111410312E+01
H    2.3889698799334724E+01    5.1071423802395813E+01   -1.7659214604005108E+01
O    1.9163978398690240E+01    2.3264803301203990E+01   -2.2987779769236788E+01
H    1.9512392200189520E+01    2.2483065559832092E+01   -2.3333463130894245E+01
H    1.8260766137452809E+01    2.3007961432549337E+01   -2.2761206822482563E+01
O    3.4763152293557901E+01   -1.2821974279006596E+01   -2.5506780097254186E+01
H    3.5057087992875339E+01   -1.1928109237611846E+01   -2.5340840013599760E+01
H    3.5585178550318844E+01   -1.3236705073191473E+01   -2.5933295819755564E+01
O   -1.3691258212350794E+01    8.6408840120275929E+00   -1.8118221967221999E+01
H   -1.3193807532837431E+01    8.7962001784635060E+00   -1.8950584857886337E+01
H   -1.3034356777549119E+01    8.3452076142970970E+00   -1.7481290375052637E+01
O    4.4173678397167713E+01    2.5754727335901354E+01   -2.0282100184392366E+01
H    4.5021569969071741E+01    2.6007721657916825E+01   -2.0708458721552887E+01
H    4.4103032890060682E+01    2.4734937666641343E+01   -2.0357338070050091E+01
O    3.7589847507822604E+01    5.6165427927759808E+01   -1.8303709500904233E+01
H    3.7841702811685622E+01    5.7126388212649708E+01   -1.8282212847542468E+01
H    3.6702697577456227E+01    5.6124502106691970E+01   -1.8751995494566557E+01
O    4.2668153018519874E+01   -3.6833826997486845E+01   -1.6603593039189299E+01
H    4.2868310175083352E+01   -3.5931125415238547E+01   -1.6329847424262965E+01
H    4.2822781849433930E+01   -3.6961656672106400E+01   -1.7531231953869714E+01
O    3.1967365728648872E+01   -9.8275626768081832E+00   -1.8145916246768159E+01
H    3.1105305288962718E+01   -9.6042554086802667E+00   -1.7760230127092573E+01
H    3.2374225490220759E+01   -8.9527343270657607E+00   -1.8297211128796814E+01
O    5.4695339522877418E+01   -1.6877181995131469E+01   -2.3732811048467735E+01
H    5.4766672136325198E+01   -1.7009854553169450E+01   -2.4684876481894662E+01
H    5.4573341455339133E+01   -1.7746256892964862E+01   -2.3271266858160185E+01
O    6.2397513240947063E+01    8.3876870204602540E+01   -2.0447524536368082E+01
H    6.1859734008711939E+01    8.3134358306512809E+01   -1.9992646319014881E+01
H    6.3318139942157551E+01    8.3499635549401319E+01   -2.0526367812880430E+01
O    1.9130114280221765E+01    5.3904517748402746E+01   -2.4501124644009860E+01
H    1.9746931879287434E+01    5.3689776914447847E+01   -2.3813235916860648E+01
H    1.9673501210928400E+01    5.3731695618213905E+01   -2.5340280692731440E+01
O    6.7659776361571360E+01    4.4431739740667176E+01   -1.9235503655489101E+01