 # Version information for this restart file 
 # current date 2020-01-19 14:05:16.842
 # current working dir /scratch/snx3000/gtocci/gtocci/MEMBRANES/AIMD_US_IONS_BN/aimd_us_iodide/us_9
 # Program compiled at                              Fri Nov 22 15:19:42 CET 2019
 # Program compiled on                                                  daint102
 # Program compiled for                                   CRAY_XC50-gfortran_gpu
 # Source code revision number                                       git:a698b45
 &GLOBAL
   PRINT_LEVEL  LOW
   PROJECT_NAME BNS
   RUN_TYPE  MD
   WALLTIME 86400
 &END GLOBAL
 &MOTION
   &MD
     ENSEMBLE  NVT
     STEPS  2000
     TIMESTEP     9.9999999999999989E-01
     STEP_START_VAL  45016
     TIME_START_VAL     4.5015999999984495E+04
     ECONS_START_VAL    -8.4828020326034966E+03
     TEMPERATURE     3.0000000000000000E+02
     TEMP_KIND  T
     &BAROSTAT
       PRESSURE     1.0000000000000000E+00
       TIMECON     9.9999999999999986E+01
       VIRIAL  Z
     &END BAROSTAT
     &THERMOSTAT
       TYPE  NOSE
       REGION  GLOBAL
       &NOSE
         LENGTH  4
         TIMECON     9.9999999999999986E+01
         MTS  2
         &COORD
               3.8214310830500914E-01    5.1424978913853128E+00   -6.2176634433847271E+00    7.7611608042656623E+00
         &END COORD
         &VELOCITY
              -7.8564961950561339E-07    1.4861277220240798E-04   -1.8837454065450188E-04   -1.3374525449210859E-04
         &END VELOCITY
         &MASS
               7.0145132684705392E+07    1.6237299232570693E+04    1.6237299232570693E+04    1.6237299232570693E+04
         &END MASS
         &FORCE
              -1.4433978826886696E-09   -5.5843514047706428E-08   -3.6424257788420267E-08   -2.3025046283310486E-08
         &END FORCE
       &END NOSE
     &END THERMOSTAT
     &AVERAGES  T
       &RESTART_AVERAGES
         ITIMES_START  1
         AVECPU     2.3590194630864172E+01
         AVEHUGONIOT     0.0000000000000000E+00
         AVETEMP_BARO     0.0000000000000000E+00
         AVEPOT    -8.4857955517674036E+03
         AVEKIN     2.0529410123861158E+00
         AVETEMP     3.0012348395914142E+02
         AVEKIN_QM     0.0000000000000000E+00
         AVETEMP_QM     0.0000000000000000E+00
         AVEVOL     2.2086622704881505E+05
         AVECELL_A     4.9287836997924956E+01
         AVECELL_B     4.7426456757034529E+01
         AVECELL_C     9.4486306644280006E+01
         AVEALPHA     9.0000000000000000E+01
         AVEBETA     9.0000000000000000E+01
         AVEGAMMA     9.0000000000000000E+01
         AVE_ECONS     6.1660931691339968E+01
         AVE_PRESS     0.0000000000000000E+00
         AVE_PXX     0.0000000000000000E+00
       &END RESTART_AVERAGES
     &END AVERAGES
     &PRINT
       &TEMP_KIND  SILENT
       &END TEMP_KIND
     &END PRINT
   &END MD
   &FREE_ENERGY
     &METADYN
       MIN_DISP    -1.0000000000000000E+00
       OLD_HILL_NUMBER  0
       OLD_HILL_STEP  0
       DO_HILLS  F
       STEP_START_VAL  45016
       NHILLS_START_VAL  0
       &METAVAR
         SCALE     1.0000000000000000E+00
         COLVAR  1
       &END METAVAR
       &PRINT
         &COLVAR  SILENT
           COMMON_ITERATION_LEVELS  3
           &EACH
             MD  1
           &END EACH
         &END COLVAR
       &END PRINT
     &END METADYN
   &END FREE_ENERGY
   &CONSTRAINT
     &COLLECTIVE
       COLVAR  1
       INTERMOLECULAR  T
       &RESTRAINT
         K     4.4625385281452931E-04
       &END RESTRAINT
     &END COLLECTIVE
     &COLVAR_RESTART
           8.7261013419376159E+00
     &END COLVAR_RESTART
   &END CONSTRAINT
   &PRINT
     &TRAJECTORY  SILENT
       &EACH
         MD  1
       &END EACH
     &END TRAJECTORY
     &VELOCITIES  SILENT
       &EACH
         MD  1
       &END EACH
     &END VELOCITIES
     &FORCES  SILENT
       UNIT eV*angstrom^-1
       &EACH
         MD  1
       &END EACH
     &END FORCES
     &RESTART  SILENT
       &EACH
         MD  1
       &END EACH
     &END RESTART
     &RESTART_HISTORY  SILENT
       &EACH
         MD  100
       &END EACH
     &END RESTART_HISTORY
   &END PRINT
 &END MOTION
 &FORCE_EVAL
   METHOD  QS
   &DFT
     BASIS_SET_FILE_NAME /users/gtocci/scratch_daint_3000/data_cp2k//BASIS_MOLOPT
     POTENTIAL_FILE_NAME /users/gtocci/scratch_daint_3000/data_cp2k//GTH_POTENTIALS
     WFN_RESTART_FILE_NAME ./BNS-RESTART.wfn
     CHARGE  -1
     &SCF
       MAX_SCF  10
       EPS_SCF     9.9999999999999995E-07
       SCF_GUESS  RESTART
       &OT  T
         MINIMIZER  DIIS
         PRECONDITIONER  FULL_KINETIC
       &END OT
       &OUTER_SCF  T
         EPS_SCF     9.9999999999999995E-07
         MAX_SCF  30
       &END OUTER_SCF
       &PRINT
         &RESTART  SILENT
           ADD_LAST  NUMERIC
           &EACH
             QS_SCF  50
           &END EACH
         &END RESTART
       &END PRINT
     &END SCF
     &QS
       MAP_CONSISTENT  T
       EXTRAPOLATION  ASPC
       EXTRAPOLATION_ORDER  4
     &END QS
     &MGRID
       NGRIDS  5
       CUTOFF     4.6000000000000000E+02
     &END MGRID
     &XC
       DENSITY_CUTOFF     1.0000000000000000E-10
       GRADIENT_CUTOFF     1.0000000000000000E-10
       TAU_CUTOFF     1.0000000000000000E-10
       &XC_GRID
         XC_DERIV  SPLINE2_SMOOTH
       &END XC_GRID
       &XC_FUNCTIONAL  NO_SHORTCUT
         &LIBXC  T
           FUNCTIONAL XC_GGA_X_OPTB88_VDW
         &END LIBXC
         &VWN  T
         &END VWN
       &END XC_FUNCTIONAL
       &VDW_POTENTIAL
         POTENTIAL_TYPE  NON_LOCAL
         &NON_LOCAL
           TYPE  DRSLL
           VERBOSE_OUTPUT  T
           KERNEL_FILE_NAME /users/gtocci/scratch_daint_3000/data_cp2k//vdW_kernel_table.dat
           CUTOFF     3.6000000000000000E+02
         &END NON_LOCAL
       &END VDW_POTENTIAL
     &END XC
     &REAL_TIME_PROPAGATION
       INITIAL_WFN  SCF_WFN
     &END REAL_TIME_PROPAGATION
     &PRINT
       &MULLIKEN  SILENT
         FILENAME =BNS.mulliken
       &END MULLIKEN
     &END PRINT
   &END DFT
   &SUBSYS
     &CELL
       A     2.6082000000000019E+01    0.0000000000000000E+00    0.0000000000000000E+00
       B     0.0000000000000000E+00    2.5097000000000001E+01    0.0000000000000000E+00
       C     0.0000000000000000E+00    0.0000000000000000E+00    5.0000000000000028E+01
       MULTIPLE_UNIT_CELL  1 1 1
     &END CELL
     &COORD
B   -1.3611752958054581E+01    1.2339194993449729E+01   -3.9498102791553059E+01
B   -1.1400240126013758E+01    1.3625438744621491E+01   -3.9351768609151179E+01
B   -1.3604272166491985E+01    1.4846610309587124E+01   -3.9500395948561149E+01
B   -1.1502690616972457E+01    1.6097431697875237E+01   -3.9188327494858363E+01
B   -1.3612272967091846E+01    1.7317890672185886E+01   -3.9302926637201125E+01
B   -1.1430175204743746E+01    1.8557058517882410E+01   -3.9107861159358180E+01
B   -1.3611068267881317E+01    1.9864127112339677E+01   -3.9135014252855683E+01
B   -1.1436226381284053E+01    2.1137757655754978E+01   -3.8910355045913661E+01
B   -1.3585232003560757E+01    2.2363576137755174E+01   -3.8885939941845201E+01
B   -1.1415827485846334E+01    2.3654788751221833E+01   -3.8853396974637448E+01
B   -9.2601065531037818E+00    1.2328811941643098E+01   -3.9186020008308567E+01
B   -7.0629534053945191E+00    1.3607159304472852E+01   -3.9176555156690256E+01
B   -9.2361175669200577E+00    1.4863230757259819E+01   -3.9317408189662395E+01
B   -7.0997454846927717E+00    1.6099047522774438E+01   -3.9179720029718389E+01
B   -9.2533613124094050E+00    1.7321336218878169E+01   -3.9012433859223250E+01
B   -7.0659016442843861E+00    1.8675570988069794E+01   -3.8910155457059027E+01
B   -9.2673138121546152E+00    1.9862525374549772E+01   -3.9019235742262254E+01
B   -7.1516667813812305E+00    2.1130366658473907E+01   -3.8689602464891543E+01
B   -9.2834088505367003E+00    2.2360337819824650E+01   -3.8933067862279309E+01
B   -7.1433910535240699E+00    2.3664379089092787E+01   -3.8761196175309124E+01
B   -4.8856117872734677E+00    1.2308805377199759E+01   -3.8981753010643139E+01
B   -2.6978585361541136E+00    1.3549162682765504E+01   -3.8979249787833695E+01
B   -4.8723424330819753E+00    1.4815887680975640E+01   -3.9065081797337214E+01
B   -2.7041069566076863E+00    1.6017768474766587E+01   -3.8835912025625589E+01
B   -4.9036786248588289E+00    1.7305527277070098E+01   -3.8922545335215020E+01
B   -2.7434932441101472E+00    1.8565204651768525E+01   -3.8721379187845017E+01
B   -4.8563046241625987E+00    1.9863291873332230E+01   -3.8569976319861986E+01
B   -2.7423494244658375E+00    2.1149305244728325E+01   -3.8696775860097027E+01
B   -4.9415410673190143E+00    2.2373581015696818E+01   -3.8653997686733796E+01
B   -2.7276936635768765E+00    2.3624140545345298E+01   -3.8826085148258606E+01
N   -1.2136471806345032E+01    1.2378887435231331E+01   -3.9316407469368272E+01
N   -9.9084039283904861E+00    1.3591800638862068E+01   -3.9356153524431519E+01
N   -1.2157836108633562E+01    1.4885389610401077E+01   -3.9468732596075746E+01
N   -1.0002997070866549E+01    1.6116350906807106E+01   -3.9183710061607336E+01
N   -1.2167467792572575E+01    1.7325933775677324E+01   -3.9174474996759692E+01
N   -9.9721637496882352E+00    1.8581679082898344E+01   -3.9127355833766046E+01
N   -1.2132392917411035E+01    1.9863026565831984E+01   -3.9013642906483483E+01
N   -9.9935494190450971E+00    2.1137989731136201E+01   -3.9012675104612569E+01
N   -1.2172112434719109E+01    2.2386379248802172E+01   -3.8877944469595469E+01
N   -9.9725580208075382E+00    2.3711222367735278E+01   -3.9035228453001736E+01
N   -7.8153111314316170E+00    1.2306985460846503E+01   -3.9110803870974166E+01
N   -5.5934052636809053E+00    1.3524661103091244E+01   -3.9117288761818166E+01
N   -7.7830255765486527E+00    1.4840063365028888E+01   -3.9240498282331551E+01
N   -5.6375492309792863E+00    1.6079157600572106E+01   -3.9135340664361955E+01
N   -7.7401398865649131E+00    1.7379613301225078E+01   -3.9106375014763223E+01
N   -5.6070229198970543E+00    1.8653106213427915E+01   -3.8793009213646748E+01
N   -7.8475918261967159E+00    1.9873201528235448E+01   -3.8941685165218303E+01
N   -5.6714752994009530E+00    2.1134535995068333E+01   -3.8440004141887755E+01
N   -7.7922030439995211E+00    2.2407208986301359E+01   -3.8713434380287765E+01
N   -5.6200962676148816E+00    2.3638996358795808E+01   -3.8806051440527781E+01
N   -3.4598133664266575E+00    1.2345282278937212E+01   -3.9023753414149581E+01
N   -1.2641932393591271E+00    1.3577504695565057E+01   -3.8983736540020487E+01
N   -3.4117987738619324E+00    1.4787242877783244E+01   -3.8973299791934615E+01
N   -1.2814826450792358E+00    1.6070502688961053E+01   -3.8769532367073850E+01
N   -3.4601995269640682E+00    1.7272634989680729E+01   -3.8785817799038831E+01
N   -1.3135093518732279E+00    1.8588294914133584E+01   -3.8767113613525495E+01
N   -3.4488805563735894E+00    1.9872186076195185E+01   -3.8608053499126434E+01
N   -1.3543990579834004E+00    2.1127749464700479E+01   -3.8778899896363306E+01
N   -3.4363476069694241E+00    2.2371683968483154E+01   -3.8708722413307186E+01
N   -1.2961509673109672E+00    2.3656142095005205E+01   -3.9018632176689124E+01
B   -1.3602875188238768E+01    2.4891774570000791E+01   -3.8842410250660343E+01
B   -1.1418545696304598E+01    2.6179229993452303E+01   -3.8923770807935682E+01
B   -1.3553734783675480E+01    2.7494714199248595E+01   -3.8722104478656881E+01
B   -1.1399622872248528E+01    2.8723990846110613E+01   -3.8795925586880664E+01
B   -1.3589817751220219E+01    2.9977809037449436E+01   -3.8762803195488175E+01
B   -1.1406876204486789E+01    3.1244839897361789E+01   -3.8726861132219234E+01
B   -1.3613800814420355E+01    3.2456090510507039E+01   -3.8967614765672067E+01
B   -1.1434686415845118E+01    3.3686230654264570E+01   -3.8946658824426954E+01
B   -1.3620027062847271E+01    3.4947494098001179E+01   -3.9203712915586472E+01
B   -1.1439496792273081E+01    3.6187474657160571E+01   -3.9077013526152705E+01
B   -9.2824768106345346E+00    2.4969925137301459E+01   -3.9074818755231540E+01
B   -7.1257993587743993E+00    2.6143058629400979E+01   -3.8979684663943821E+01
B   -9.2690212706656947E+00    2.7500256880791945E+01   -3.8961542165930659E+01
B   -7.1181544989321743E+00    2.8651910927564252E+01   -3.8796175560194840E+01
B   -9.2727964695093785E+00    2.9965222933905000E+01   -3.8658630808350459E+01
B   -7.0835973258565090E+00    3.1212308823117301E+01   -3.8846239118798110E+01
B   -9.2383249099184930E+00    3.2480473781198654E+01   -3.8867182608549776E+01
B   -7.0363604906286357E+00    3.3693473933915570E+01   -3.9079229741990680E+01
B   -9.2092556352446859E+00    3.4983320366219289E+01   -3.9059984316177619E+01
B   -7.0563855142942815E+00    3.6192140533455735E+01   -3.9121377858736949E+01
B   -4.9382198708730591E+00    2.4889696185523711E+01   -3.8988307325359692E+01
B   -2.7451725326937799E+00    2.6087143029692331E+01   -3.8967036212362416E+01
B   -4.9401761781288753E+00    2.7413345311270970E+01   -3.8882517731666866E+01
B   -2.7412389271927928E+00    2.8643393550645865E+01   -3.8919371683497346E+01
B   -4.9181307609139617E+00    2.9886985257820413E+01   -3.8820498201484099E+01
B   -2.7082367520939412E+00    3.1141640758402062E+01   -3.8984548189735790E+01
B   -4.8937067063234725E+00    3.2418893897075350E+01   -3.8957099147995457E+01
B   -2.7098037213075727E+00    3.3675644191980595E+01   -3.9217150731555911E+01
B   -4.8664601511009886E+00    3.4874209686222237E+01   -3.9116312055836396E+01
B   -2.7199478649684967E+00    3.6198301185177208E+01   -3.9072507455361830E+01
N   -1.2136190360470270E+01    2.4889058641084866E+01   -3.8938321715879475E+01
N   -9.9672276120000003E+00    2.6231702153390877E+01   -3.9083116557153055E+01
N   -1.2116470699029618E+01    2.7454556486042627E+01   -3.8861198242078743E+01
N   -9.9778088049278413E+00    2.8702040188882187E+01   -3.8713209011149750E+01
N   -1.2159080910621494E+01    3.0001376487034644E+01   -3.8608374402860818E+01
N   -9.9793086162841362E+00    3.1252555404679342E+01   -3.8648709855295259E+01
N   -1.2143494095468512E+01    3.2462885763911686E+01   -3.8910730604118321E+01
N   -9.9378959591577694E+00    3.3722661422455971E+01   -3.8972692088007939E+01
N   -1.2157736217112166E+01    3.4912394448269957E+01   -3.9064707553163664E+01
N   -9.9926317838931649E+00    3.6175589613127720E+01   -3.9008396746230872E+01
N   -7.8795307554031782E+00    2.4870947163660318E+01   -3.8933974213390144E+01
N   -5.6326579073165250E+00    2.6149625099630956E+01   -3.9003381734066771E+01
N   -7.8502756243051524E+00    2.7409379521634456E+01   -3.9016057002313687E+01
N   -5.6098534787259222E+00    2.8635481723749983E+01   -3.8722135914831249E+01
N   -7.7845083109835862E+00    2.9904331635107265E+01   -3.8749882290224107E+01
N   -5.6169185432299296E+00    3.1168308796195326E+01   -3.8937512384150637E+01
N   -7.7640685211619349E+00    3.2495737439205506E+01   -3.8858933270958474E+01
N   -5.6310930862716164E+00    3.3687150570218343E+01   -3.8988364429861115E+01
N   -7.7850524944813113E+00    3.4957957318251388E+01   -3.9163515208748485E+01
N   -5.6019345336911499E+00    3.6156561961035820E+01   -3.9070251737695372E+01
N   -3.4954743351340465E+00    2.4813526865826276E+01   -3.8919924375806652E+01
N   -1.3001577396415416E+00    2.6146362814916767E+01   -3.9046964240419584E+01
N   -3.4832719037840034E+00    2.7351726387248920E+01   -3.8905150856213197E+01
N   -1.3443980116421899E+00    2.8677178446053862E+01   -3.8884583236793461E+01
N   -3.4478683591121988E+00    2.9930967249661094E+01   -3.8831795308552685E+01
N   -1.2784164851349797E+00    3.1162187300130864E+01   -3.9047756177236643E+01
N   -3.4293545648531691E+00    3.2382893378252390E+01   -3.8935073638567232E+01
N   -1.2520387653117548E+00    3.3714160383084661E+01   -3.9349529429744791E+01
N   -3.4436390946640705E+00    3.4949782389656512E+01   -3.9094228071975067E+01
N   -1.2664671629544724E+00    3.6208879423781170E+01   -3.9065888449965435E+01
B   -5.2119665112350710E-01    1.2299803422453717E+01   -3.8936245883456067E+01
B    1.5765824639655459E+00    1.3597466739952557E+01   -3.8902745178947455E+01
B   -5.4385108193948251E-01    1.4857718826154560E+01   -3.8874845589750706E+01
B    1.6205715159072054E+00    1.6060419152131335E+01   -3.8723309572965263E+01
B   -6.2069464372548422E-01    1.7338001438505525E+01   -3.8814102264811538E+01
B    1.5944872666229619E+00    1.8603381550758861E+01   -3.8687755242217229E+01
B   -6.1752833041838529E-01    1.9851725224391899E+01   -3.8779377561618645E+01
B    1.5754551777044805E+00    2.1135902086195422E+01   -3.8784907782017235E+01
B   -5.3986798460033980E-01    2.2352966178342815E+01   -3.8888508177066505E+01
B    1.6131845133972571E+00    2.3633403772363096E+01   -3.9063354374035789E+01
B    3.7723449158760958E+00    1.2328796870676173E+01   -3.9008704388615016E+01
B    5.9184896862971321E+00    1.3594393480327049E+01   -3.9254750878532334E+01
B    3.7916692229252469E+00    1.4828168330831398E+01   -3.8974989165795385E+01
B    5.9945891310191994E+00    1.6098212070551011E+01   -3.9073728763139066E+01
B    3.8352530956346054E+00    1.7343099614536609E+01   -3.8720937130671331E+01
B    5.9706145732220639E+00    1.8629113768856449E+01   -3.8953630761717719E+01
B    3.7777904152911073E+00    1.9844622454978442E+01   -3.8807382894390621E+01
B    5.9787779073541465E+00    2.1117759065738831E+01   -3.8934533043961665E+01
B    3.7757800096792198E+00    2.2373226754703154E+01   -3.9029473095105658E+01
B    5.9463367900824355E+00    2.3624116150862054E+01   -3.9008144402471849E+01
B    8.1471732290241796E+00    1.2333631488626274E+01   -3.9506333159670220E+01
B    1.0343387688342389E+01    1.3625198393605437E+01   -3.9647788529085680E+01
B    8.0852289997882547E+00    1.4854765460625405E+01   -3.9497248999286590E+01
B    1.0347438613115077E+01    1.6120311846125642E+01   -3.9551687706618893E+01
B    8.1036059686079316E+00    1.7398286578226006E+01   -3.9210679011519339E+01
B    1.0315683063637810E+01    1.8563636246547684E+01   -3.9266897501147220E+01
B    8.2341647441221539E+00    1.9895541259935236E+01   -3.9019214461551641E+01
B    1.0296148149355922E+01    2.1165580868245787E+01   -3.9145803123632206E+01
B    8.1572159521246999E+00    2.2438517399107134E+01   -3.8887004055047008E+01
B    1.0365721677265155E+01    2.3644319091445727E+01   -3.8865164534415570E+01
N    8.9366830375536255E-01    1.2324695558954827E+01   -3.8884417211049389E+01
N    3.0631374754778427E+00    1.3601806176157551E+01   -3.8911130307165209E+01
N    8.9169277013858417E-01    1.4830284719058762E+01   -3.8813719136011379E+01
N    3.0996983044094972E+00    1.6088030800065351E+01   -3.8747168768560535E+01
N    8.3082353329891445E-01    1.7335034520318814E+01   -3.8742517469133155E+01
N    3.0470244811787062E+00    1.8587555617712670E+01   -3.8725343179047009E+01
N    8.6853378977697338E-01    1.9834174635087443E+01   -3.8809341772179124E+01
N    3.0188001144106225E+00    2.1110878033996176E+01   -3.8826169498704502E+01
N    9.2732004499791387E-01    2.2374666969956039E+01   -3.8772414797612662E+01
N    3.0610181307922995E+00    2.3631631364436569E+01   -3.9114721183338418E+01
N    5.2555396678153610E+00    1.2317591366809918E+01   -3.9243624036435143E+01
N    7.4114323506867335E+00    1.3606256590303895E+01   -3.9411245017125708E+01
N    5.1837878795845755E+00    1.4818651729314947E+01   -3.9189727556848062E+01
N    7.3859553725011109E+00    1.6139149444066170E+01   -3.9356919601944099E+01
N    5.2504347735652406E+00    1.7373832318915003E+01   -3.8858431586331534E+01
N    7.4379904338759832E+00    1.8614960384835044E+01   -3.9028441925791547E+01
N    5.2358317180979261E+00    1.9890315131497083E+01   -3.8954450535739994E+01
N    7.4913269901296262E+00    2.1194997161255252E+01   -3.8938495423995477E+01
N    5.2044312938364650E+00    2.2365617936730242E+01   -3.8901750170375649E+01
N    7.3959855663200758E+00    2.3688364648249316E+01   -3.8919486940387323E+01
N    9.5874853199786454E+00    1.2414036396985582E+01   -3.9607417692793867E+01
N    1.1796915583613890E+01    1.3568701459918769E+01   -3.9698836783587765E+01
N    9.6111194594274476E+00    1.4865612666385051E+01   -3.9680788152776849E+01
N    1.1781921330576120E+01    1.6073335215971042E+01   -3.9542460618294179E+01
N    9.5716480653522318E+00    1.7334298142461002E+01   -3.9316482702610152E+01
N    1.1818029970952651E+01    1.8582491422829712E+01   -3.9306907965306124E+01
N    9.6414122135987572E+00    1.9860783328447749E+01   -3.9223601562782335E+01
N    1.1771853177639027E+01    2.1133774022975384E+01   -3.9019808241947970E+01
N    9.6317085800170723E+00    2.2406144574002841E+01   -3.9089548410496768E+01
N    1.1795827438369388E+01    2.3655812790547998E+01   -3.8746016865932013E+01
B   -6.0389842822701501E-01    2.4935165547937313E+01   -3.9095561838782352E+01
B    1.5858807356194360E+00    2.6158075556006995E+01   -3.8995603883852560E+01
B   -6.0300847760036924E-01    2.7432222842920829E+01   -3.8910689483129396E+01
B    1.6074697830266726E+00    2.8646013953056393E+01   -3.8799315681852121E+01
B   -5.9698044259283700E-01    2.9914420726440799E+01   -3.8868744421312648E+01
B    1.5625962348270095E+00    3.1152959063139814E+01   -3.8961887576950012E+01
B   -5.3533986527231603E-01    3.2444247281298125E+01   -3.9188671776504293E+01
B    1.5884988984366448E+00    3.3622307984748907E+01   -3.8995867347871155E+01
B   -5.5183443106471508E-01    3.4935291355011046E+01   -3.9150507551992334E+01
B    1.5944366725165662E+00    3.6156255671893490E+01   -3.8989504259645592E+01
B    3.7920295861350803E+00    2.4860016445475161E+01   -3.9056417150502313E+01
B    5.9797420947051592E+00    2.6131602332120799E+01   -3.9020188892443343E+01
B    3.8062096423289251E+00    2.7356255756612423E+01   -3.8915410032825882E+01
B    6.0200399074761126E+00    2.8625218743215981E+01   -3.8941752472689963E+01
B    3.8051645017986711E+00    2.9887645683645200E+01   -3.8893307390707434E+01
B    5.9716884506296877E+00    3.1118462122069282E+01   -3.9086359093663404E+01
B    3.7814993833928341E+00    3.2387416169689672E+01   -3.9002846793222545E+01
B    5.9161323370943615E+00    3.3610319220593212E+01   -3.9151889379359936E+01
B    3.7353799795713423E+00    3.4888237421260357E+01   -3.9016802992297031E+01
B    5.9704466877825224E+00    3.6179945837575829E+01   -3.9167324137079774E+01
B    8.1647045408265981E+00    2.4953606449329101E+01   -3.8918977465072210E+01
B    1.0348614263453669E+01    2.6171253647201176E+01   -3.8717749847220773E+01
B    8.1900541469909847E+00    2.7362474306672652E+01   -3.8900756177000581E+01
B    1.0302627409676116E+01    2.8661282747204297E+01   -3.8800646816517897E+01
B    8.1552351918145831E+00    2.9932971045299745E+01   -3.8931618305211373E+01
B    1.0299622061939397E+01    3.1173907764762333E+01   -3.8959065658818467E+01
B    8.0647648136670718E+00    3.2421106555957955E+01   -3.9194896630584495E+01
B    1.0287366634812214E+01    3.3737039132083765E+01   -3.9159949800625036E+01
B    8.1466789586365760E+00    3.4877710364436830E+01   -3.9341100053730599E+01
B    1.0301207743582474E+01    3.6202733215675110E+01   -3.9437767445687491E+01
N    8.5074385949785725E-01    2.4884562253072389E+01   -3.9146472472152269E+01
N    3.0929644591594490E+00    2.6131747995640183E+01   -3.8973355241766150E+01
N    8.5485095037240943E-01    2.7393622202894417E+01   -3.8912995732491005E+01
N    3.0524814601681918E+00    2.8656005011239980E+01   -3.8828641759137177E+01
N    8.3605878314013127E-01    2.9904650991158348E+01   -3.8878658998570437E+01
N    3.0199997306454289E+00    3.1110711608563154E+01   -3.8999292127224358E+01
N    8.9352749497442530E-01    3.2411890442223559E+01   -3.9005866511619288E+01
N    3.0399498409296966E+00    3.3596096337911909E+01   -3.8883406327381877E+01
N    8.9136816756365489E-01    3.4876517941150134E+01   -3.8999605445108564E+01
N    3.0712649012576572E+00    3.6170089737902956E+01   -3.8932360338323363E+01
N    5.2453523482242730E+00    2.4873235674500332E+01   -3.9081037188821988E+01
N    7.4614246106555724E+00    2.6128154323311787E+01   -3.9010756985994256E+01
N    5.2592694630575236E+00    2.7412021220793040E+01   -3.8939285376368709E+01
N    7.4499232960947124E+00    2.8657111676814313E+01   -3.8817117386003005E+01
N    5.2746060558026970E+00    2.9867942138001464E+01   -3.8969225299682613E+01
N    7.4340334518412812E+00    3.1167727548000318E+01   -3.9093018726679837E+01
N    5.2103521418407182E+00    3.2361940444401789E+01   -3.9074642563879564E+01
N    7.3614112192481009E+00    3.3653485982297994E+01   -3.9187113875730546E+01
N    5.2152367942038502E+00    3.4912538977450133E+01   -3.9116913280566443E+01
N    7.4176007022156680E+00    3.6151856943256227E+01   -3.9368541345185932E+01
N    9.6142480370168499E+00    2.4877178681709925E+01   -3.8718290985641751E+01
N    1.1778804904814367E+01    2.6211682377386087E+01   -3.8712699290117300E+01
N    9.5990473854383254E+00    2.7422762504295129E+01   -3.8853334253027036E+01
N    1.1769460944655869E+01    2.8725815013181556E+01   -3.8637474482354470E+01
N    9.5608180087531558E+00    2.9908783644171422E+01   -3.8912300491848953E+01
N    1.1717391711506140E+01    3.1182964918821373E+01   -3.8858766605537880E+01
N    9.5464364497782608E+00    3.2476213376515233E+01   -3.9142268595541445E+01
N    1.1699634963572001E+01    3.3670460798975128E+01   -3.9141401100678699E+01
N    9.6024643812982262E+00    3.4975536768842019E+01   -3.9300326166259524E+01
N    1.1746449823477713E+01    3.6197239946645340E+01   -3.9393759656994455E+01
O   -3.6193030896639137E+01   -1.2134801624292393E+01   -3.5613602619530091E+01
H   -3.5386306622810729E+01   -1.1593614735859198E+01   -3.5918087214796813E+01
H   -3.6140006361681010E+01   -1.2216317360762973E+01   -3.4648849178023113E+01
O   -6.4967724909776948E+01    7.5923285342446931E+00   -3.2652914110015757E+01
H   -6.5155873291761921E+01    7.8087533251322201E+00   -3.3645689788146328E+01
H   -6.5136472599038598E+01    6.6102951344800855E+00   -3.2645930348445390E+01
O   -5.6211875685148236E+01    3.3740291403552845E+01   -3.5900759091029627E+01
H   -5.5554327539771890E+01    3.3813738551505494E+01   -3.6580951614500350E+01
H   -5.5620037469096452E+01    3.3305855094126329E+01   -3.5170298326670981E+01
O   -6.8074570728908697E+00   -3.5323758991017804E+01   -2.5811936421571737E+01
H   -7.5683919437705933E+00   -3.5862693222103587E+01   -2.5443213112523111E+01
H   -6.9269911103596904E+00   -3.5313042883272054E+01   -2.6831978479482327E+01
O   -5.1485994413177522E+01   -4.1282795469596472E+01   -3.1369046203584528E+01
H   -5.2023171074652929E+01   -4.1307989500110168E+01   -3.2191680291495835E+01
H   -5.0768253566413151E+01   -4.1987671244119362E+01   -3.1532583554359359E+01
O   -3.0749385808280117E+01   -5.0872080809186322E+01   -3.1977715070865681E+01
H   -3.1567948852317059E+01   -5.1440979018488576E+01   -3.2049066282746679E+01
H   -3.1098473185255074E+01   -4.9963095389756241E+01   -3.1700900656849296E+01
O   -3.0887948520800840E-01    5.8040684179120490E+01   -3.3886660519873303E+01
H   -4.8446676631572122E-01    5.7174246262659409E+01   -3.3518302690382185E+01
H    6.8075597972979918E-01    5.7907034036657997E+01   -3.3975729866982000E+01
O   -3.9207049573958599E+01   -1.7474527547311951E+01   -2.3499907248753427E+01
H   -3.8813621999211968E+01   -1.7178571142368270E+01   -2.4386391812398731E+01
H   -3.9628735586567522E+01   -1.8305490095634223E+01   -2.3695624909962785E+01
O    5.1990940682988736E+01   -4.0592453936823240E+01   -2.1211493724041901E+01
H    5.1926564433146382E+01   -4.1558980938326670E+01   -2.0994253591372694E+01
H    5.1072705283152416E+01   -4.0194853092628691E+01   -2.1121118242278438E+01
O   -1.0260383119063658E-01   -5.6618440527015004E+01   -2.9273848622570775E+01
H    5.8480922749441033E-01   -5.7318424945530630E+01   -2.9077728431469716E+01
H    3.1964384639309434E-01   -5.6036252398699332E+01   -2.9934649854963912E+01
O   -7.8125780405224347E+01   -1.9000791787460564E+01   -1.9616099860473724E+01
H   -7.7287520337174584E+01   -1.9096971964851473E+01   -2.0205927637931087E+01
H   -7.7816196287101192E+01   -1.9494285492456910E+01   -1.8835067569293919E+01
O    1.9492089544590456E+01   -7.1829520960209372E+00   -2.8226348223481008E+01
H    2.0232037689188410E+01   -7.6429966233513680E+00   -2.7773710441565022E+01
H    1.8620256932878274E+01   -7.5119908217275091E+00   -2.7829405512788011E+01
O   -9.4069414519271916E+01   -3.0158135943847181E+01   -2.3514099809695740E+01
H   -9.4147433720171691E+01   -3.0928704762506086E+01   -2.4104177977618015E+01
H   -9.4966201821212579E+01   -3.0086728950333722E+01   -2.3088249862160385E+01
O    3.0079509282621551E+01    3.5251616777321452E+01   -3.1853942095526151E+01
H    3.0721445081692156E+01    3.4582690116074062E+01   -3.2240452000250293E+01
H    3.0237200059192602E+01    3.5155362118847670E+01   -3.0843734060631743E+01
O   -2.9083511043542028E+01    2.8162134944847789E-01   -2.6307902951856139E+01
H   -2.8441649054437182E+01   -4.1096399316387561E-01   -2.6193751077219709E+01
H   -2.8879921719517409E+01    1.0735697786257030E+00   -2.5740837771487342E+01
O   -2.9303527876172684E+00   -3.2924441131872143E+01   -2.4805742127290294E+01
H   -3.1973314058630451E+00   -3.3289463337254972E+01   -2.5663921301496352E+01
H   -1.9548302061323704E+00   -3.3070165361799766E+01   -2.4814556569838448E+01
O   -2.4916709639236778E+01   -3.8596650911716729E+01   -3.0578453164046746E+01
H   -2.4672600552905603E+01   -3.9559873816320426E+01   -3.0743214211741442E+01
H   -2.5261552309354276E+01   -3.8698086877908757E+01   -2.9639585528803522E+01
O   -6.0023392657642901E+01   -4.8586233009985385E+01   -2.2950612159721786E+01
H   -6.0289069516262018E+01   -4.8269912239502254E+01   -2.3832100709408852E+01
H   -6.0231670603922161E+01   -4.9539029234166918E+01   -2.2942782719113271E+01
O   -7.3139517729395848E+01    4.3183990040722783E+01   -3.2753839253974242E+01