 # Version information for this restart file 
 # current date 2020-04-18 20:49:32.567
 # current working dir /scratch/snx3000/gtocci/gtocci/MEMBRANES/AIMD_US_IONS_GRA/us_aimd_new/us_30
 # Program compiled at                              Fri Nov 22 15:19:42 CET 2019
 # Program compiled on                                                  daint102
 # Program compiled for                                   CRAY_XC50-gfortran_gpu
 # Source code revision number                                       git:a698b45
 &GLOBAL
   PRINT_LEVEL  LOW
   PROJECT_NAME GRAS
   RUN_TYPE  MD
   WALLTIME 86400
 &END GLOBAL
 &MOTION
   &MD
     ENSEMBLE  NVT
     STEPS  2000
     TIMESTEP     9.9999999999999989E-01
     STEP_START_VAL  74245
     TIME_START_VAL     7.4244999999939319E+04
     ECONS_START_VAL    -8.3040302921017101E+03
     TEMPERATURE     3.0000000000000000E+02
     TEMP_KIND  T
     &BAROSTAT
       PRESSURE     1.0000000000000000E+00
       TIMECON     9.9999999999999986E+01
       VIRIAL  Z
     &END BAROSTAT
     &THERMOSTAT
       TYPE  NOSE
       REGION  GLOBAL
       &NOSE
         LENGTH  4
         TIMECON     9.9999999999999986E+01
         MTS  2
         &COORD
               1.5673232720330943E-01    2.7980904953123968E+01   -8.9926423715875252E+00    2.3090099944189797E+00
         &END COORD
         &VELOCITY
               5.8319654602892955E-06    8.5899192837024085E-05    1.9924496213813553E-05    8.6893602481648226E-05
         &END VELOCITY
         &MASS
               7.0145132684705392E+07    1.6237299232570693E+04    1.6237299232570693E+04    1.6237299232570693E+04
         &END MASS
         &FORCE
              -3.8401154887682545E-10    8.8421053431526615E-08   -5.1131342520052825E-08   -5.8113028300730797E-08
         &END FORCE
       &END NOSE
     &END THERMOSTAT
     &AVERAGES  T
       &RESTART_AVERAGES
         ITIMES_START  1
         AVECPU     3.1076652879083863E+01
         AVEHUGONIOT     0.0000000000000000E+00
         AVETEMP_BARO     0.0000000000000000E+00
         AVEPOT    -8.3065612968654186E+03
         AVEKIN     2.0503826674027854E+00
         AVETEMP     2.9974947447473215E+02
         AVEKIN_QM     0.0000000000000000E+00
         AVETEMP_QM     0.0000000000000000E+00
         AVEVOL     2.1331414786626332E+05
         AVECELL_A     4.8437460238123727E+01
         AVECELL_B     4.6608961231948342E+01
         AVECELL_C     9.4486306644280930E+01
         AVEALPHA     9.0000000000000071E+01
         AVEBETA     9.0000000000000071E+01
         AVEGAMMA     9.0000000000000071E+01
         AVE_ECONS     3.7528321194524306E-01
         AVE_PRESS     0.0000000000000000E+00
         AVE_PXX     0.0000000000000000E+00
       &END RESTART_AVERAGES
     &END AVERAGES
     &PRINT
       &TEMP_KIND  SILENT
       &END TEMP_KIND
     &END PRINT
   &END MD
   &FREE_ENERGY
     &METADYN
       MIN_DISP    -1.0000000000000000E+00
       OLD_HILL_NUMBER  0
       OLD_HILL_STEP  0
       DO_HILLS  F
       STEP_START_VAL  74245
       NHILLS_START_VAL  0
       &METAVAR
         SCALE     1.0000000000000000E+00
         COLVAR  1
       &END METAVAR
       &PRINT
         &COLVAR  SILENT
           COMMON_ITERATION_LEVELS  3
           &EACH
             MD  1
           &END EACH
         &END COLVAR
       &END PRINT
     &END METADYN
   &END FREE_ENERGY
   &CONSTRAINT
     &COLLECTIVE
       COLVAR  1
       INTERMOLECULAR  T
       &RESTRAINT
         K     4.4625385281452931E-04
       &END RESTRAINT
     &END COLLECTIVE
     &COLVAR_RESTART
           2.8345891993284649E+01
     &END COLVAR_RESTART
   &END CONSTRAINT
   &PRINT
     &TRAJECTORY  SILENT
       &EACH
         MD  1
       &END EACH
     &END TRAJECTORY
     &VELOCITIES  SILENT
       &EACH
         MD  1
       &END EACH
     &END VELOCITIES
     &FORCES  SILENT
       UNIT eV*angstrom^-1
       &EACH
         MD  1
       &END EACH
     &END FORCES
     &RESTART  SILENT
       &EACH
         MD  1
       &END EACH
     &END RESTART
     &RESTART_HISTORY  SILENT
       &EACH
         MD  100
       &END EACH
     &END RESTART_HISTORY
   &END PRINT
 &END MOTION
 &FORCE_EVAL
   METHOD  QS
   &DFT
     BASIS_SET_FILE_NAME /users/gtocci/scratch_daint_3000/data_cp2k//BASIS_MOLOPT
     POTENTIAL_FILE_NAME /users/gtocci/scratch_daint_3000/data_cp2k//GTH_POTENTIALS
     WFN_RESTART_FILE_NAME ./GRAS-RESTART.wfn
     CHARGE  -1
     &SCF
       MAX_SCF  10
       EPS_SCF     9.9999999999999995E-07
       SCF_GUESS  RESTART
       &OT  T
         MINIMIZER  DIIS
         PRECONDITIONER  FULL_KINETIC
       &END OT
       &OUTER_SCF  T
         EPS_SCF     9.9999999999999995E-07
         MAX_SCF  30
       &END OUTER_SCF
       &PRINT
         &RESTART  SILENT
           ADD_LAST  NUMERIC
           &EACH
             QS_SCF  50
           &END EACH
         &END RESTART
       &END PRINT
     &END SCF
     &QS
       MAP_CONSISTENT  T
       EXTRAPOLATION  ASPC
       EXTRAPOLATION_ORDER  4
     &END QS
     &MGRID
       NGRIDS  5
       CUTOFF     4.6000000000000000E+02
     &END MGRID
     &XC
       DENSITY_CUTOFF     1.0000000000000000E-10
       GRADIENT_CUTOFF     1.0000000000000000E-10
       TAU_CUTOFF     1.0000000000000000E-10
       &XC_GRID
         XC_DERIV  SPLINE2_SMOOTH
       &END XC_GRID
       &XC_FUNCTIONAL  NO_SHORTCUT
         &LIBXC  T
           FUNCTIONAL XC_GGA_X_OPTB88_VDW
         &END LIBXC
         &VWN  T
         &END VWN
       &END XC_FUNCTIONAL
       &VDW_POTENTIAL
         POTENTIAL_TYPE  NON_LOCAL
         &NON_LOCAL
           TYPE  DRSLL
           VERBOSE_OUTPUT  T
           KERNEL_FILE_NAME /users/gtocci/scratch_daint_3000/data_cp2k//vdW_kernel_table.dat
         &END NON_LOCAL
       &END VDW_POTENTIAL
     &END XC
     &REAL_TIME_PROPAGATION
       INITIAL_WFN  SCF_WFN
     &END REAL_TIME_PROPAGATION
     &PRINT
       &MULLIKEN  SILENT
         FILENAME =GRAS.mulliken
       &END MULLIKEN
     &END PRINT
   &END DFT
   &SUBSYS
     &CELL
       A     2.5632000000000001E+01    0.0000000000000000E+00    0.0000000000000000E+00
       B     0.0000000000000000E+00    2.4664400000000022E+01    0.0000000000000000E+00
       C     0.0000000000000000E+00    0.0000000000000000E+00    5.0000000000000028E+01
       MULTIPLE_UNIT_CELL  1 1 1
     &END CELL
     &COORD
C    4.6636813554027068E+00   -4.6155386613876503E+00   -5.3750083628765930E+00
C    6.0854795846431626E+00   -4.6170966496744077E+00   -5.3225339600580250E+00
C    6.7800578869802886E+00   -3.4150346213931182E+00   -5.1890697198309308E+00
C    8.2057025972573552E+00   -3.4107090557791486E+00   -5.1679881769950882E+00
C    4.6263347725363344E+00   -2.1261751364234684E+00   -5.3451721180319387E+00
C    6.0445379842440889E+00   -2.1591526084242441E+00   -5.2047683838704275E+00
C    6.7723357494786578E+00   -9.4232998599061135E-01   -5.0825625160478731E+00
C    8.1869628066666742E+00   -9.4688169333084393E-01   -5.0118557519177722E+00
C    4.6602347269853981E+00    3.5100414084885168E-01   -5.2650719042964189E+00
C    6.0978835930148927E+00    3.2648592539305360E-01   -5.1650028071248508E+00
C    6.7959858226349743E+00    1.5563972504114540E+00   -5.1275019535168607E+00
C    8.2537827999376550E+00    1.5352400689906669E+00   -5.0169744808252128E+00
C    4.6683883037147105E+00    2.8185337641131523E+00   -5.4797453053250829E+00
C    6.0729106291631556E+00    2.8061532407546208E+00   -5.2217427006107959E+00
C    6.7883530749541645E+00    4.0433037830776586E+00   -5.1736020657399280E+00
C    8.2055872098847562E+00    4.0022749320508524E+00   -5.0962591235692285E+00
C    4.6563735685558418E+00    5.2896742932758922E+00   -5.4083727960545556E+00
C    6.0714991710093837E+00    5.2859077955088507E+00   -5.2680366638675338E+00
C    6.8311297591601576E+00   -5.8767662938498040E+00   -5.3798218220482212E+00
C    8.2502446609981845E+00   -5.8738701477688089E+00   -5.4509440890540368E+00
C    8.9307091433617796E+00   -4.6188023362838084E+00   -5.3398142050421802E+00
C    1.0318144613833121E+01   -4.5982165139098408E+00   -5.4325453959172592E+00
C    1.1038780701218379E+01   -3.3888073589669352E+00   -5.3866147740408215E+00
C    1.2476777875084021E+01   -3.3991583681154571E+00   -5.5580830306077535E+00
C    8.8935896273061363E+00   -2.1707569498726969E+00   -5.1729429466107018E+00
C    1.0332958190147577E+01   -2.1762685852452046E+00   -5.2178905026839200E+00
C    1.1079124246678486E+01   -9.9269620204343567E-01   -5.2562810494975807E+00
C    1.2484443697327961E+01   -9.3797122977060654E-01   -5.3659291128453903E+00
C    8.9416144827140318E+00    2.7118635623292087E-01   -4.9960932559987814E+00
C    1.0397076623922290E+01    2.7548024092742629E-01   -5.0819241933699457E+00
C    1.1064564022082378E+01    1.5050302661857833E+00   -5.1100381064767131E+00
C    1.2469318207249575E+01    1.5802503055783561E+00   -5.2365614737177841E+00
C    8.9192083539357903E+00    2.7595264194044113E+00   -5.0384541097367244E+00
C    1.0355278403380380E+01    2.7442318359597984E+00   -5.0235555912575380E+00
C    1.1057138475225555E+01    3.9897072684446968E+00   -5.0698293978173830E+00
C    1.2482404395641156E+01    4.0289893317749277E+00   -5.1541771857585923E+00
C    8.9162765930867440E+00    5.2125693543194931E+00   -5.1452462405185617E+00
C    1.0370625594173196E+01    5.2103927738222406E+00   -5.1557179349525368E+00
C    1.1059276797195730E+01   -5.8461183689091873E+00   -5.5761450905576186E+00
C    1.2497160815783943E+01   -5.8645508172704179E+00   -5.7441354588434859E+00
C    1.3161929266920460E+01   -4.6281205688213403E+00   -5.7670640295407116E+00
C    1.4581337354442859E+01   -4.6024418692002946E+00   -5.8041589429806155E+00
C    1.5304964000142519E+01   -3.3542508394336288E+00   -5.7473809372414122E+00
C    1.6744754322305070E+01   -3.3794680766296890E+00   -5.7071500438221658E+00
C    1.3162126709589410E+01   -2.1331003005442359E+00   -5.4518209834433984E+00
C    1.4583488601991403E+01   -2.0997801067250768E+00   -5.6434451085047437E+00
C    1.5317444484041101E+01   -8.9466549146335950E-01   -5.5987752934447705E+00
C    1.6751291504334276E+01   -8.9300165351778993E-01   -5.7065569450429185E+00
C    1.3219508755269100E+01    3.3703108111679936E-01   -5.3667761679434873E+00
C    1.4630238862666751E+01    3.6736818582583808E-01   -5.4901849513408179E+00
C    1.5352070140561976E+01    1.5797711249354727E+00   -5.4415729171464093E+00
C    1.6758025707991241E+01    1.5877847264703915E+00   -5.5084093417780382E+00
C    1.3222215483420879E+01    2.7846793711885458E+00   -5.2080820115769813E+00
C    1.4626126645619507E+01    2.7925071066339724E+00   -5.3212292963943968E+00
C    1.5348088362128321E+01    4.0099157288689593E+00   -5.3705548905345175E+00
C    1.6756609936613618E+01    4.0533512789891599E+00   -5.4000057908464676E+00
C    1.3204844501719190E+01    5.2713345864387779E+00   -5.1367854327027365E+00
C    1.4650769439568013E+01    5.2300737981505998E+00   -5.2820722126273774E+00
C    1.5324942747240627E+01   -5.8348172603193547E+00   -5.8276364818760742E+00
C    1.6758556800409838E+01   -5.8311823589499410E+00   -5.7803750299866596E+00
C    4.6608326739012513E+00    7.7457354976400019E+00   -5.4957938209412385E+00
C    6.0742940719763396E+00    7.7946151924653178E+00   -5.5289659402089528E+00
C    6.7727328923003496E+00    8.9886026916828143E+00   -5.4843435320496647E+00
C    8.1819066379619141E+00    8.9175810784404437E+00   -5.3545672721440631E+00
C    4.6191297378895282E+00    1.0203606408309039E+01   -5.4861485526891762E+00
C    6.0716757068799208E+00    1.0269356229498275E+01   -5.4190580795128369E+00
C    6.7984264675128454E+00    1.1497420835044894E+01   -5.4120522261837394E+00
C    8.2351062878655110E+00    1.1429222253228200E+01   -5.4244893911590788E+00
C    4.6649966025599845E+00    1.2686912268916929E+01   -5.3957424207027129E+00
C    6.0895464488574635E+00    1.2715813808757714E+01   -5.4424668872678987E+00
C    6.8386438816458641E+00    1.3928317193897191E+01   -5.3647795103801901E+00
C    8.2735041236549751E+00    1.3903391691094724E+01   -5.3396554881634843E+00
C    4.6996752744845072E+00    1.5133367619710022E+01   -5.3558997937406954E+00
C    6.1462605616308608E+00    1.5124714643458310E+01   -5.3696928604800380E+00
C    6.8557932572082585E+00    1.6320265515372810E+01   -5.3642384730109880E+00
C    8.2888764733774281E+00    1.6359280608134096E+01   -5.4703367288400129E+00
C    4.6854822299562144E+00    1.7556426235141753E+01   -5.3758980559371219E+00
C    6.1148692103988536E+00    1.7550243002044493E+01   -5.3345172323107803E+00
C    6.8042982537644194E+00    6.5274042544351758E+00   -5.3459186559284646E+00
C    8.2043092607103336E+00    6.4493156559444289E+00   -5.1665740781711325E+00
C    8.9372436808542357E+00    7.6935934008841746E+00   -5.3232215312119644E+00
C    1.0341055917381304E+01    7.7150553786229237E+00   -5.3583642984673983E+00
C    1.1045231549734629E+01    8.9509476054757595E+00   -5.3851192083019486E+00
C    1.2476150183363979E+01    8.9160784590842734E+00   -5.4708456643726908E+00
C    8.8872222251130477E+00    1.0137891056394439E+01   -5.3616946334767830E+00
C    1.0291217639606010E+01    1.0162347409922123E+01   -5.4523353015400833E+00
C    1.1040353793972910E+01    1.1363894614849377E+01   -5.5252137182368131E+00
C    1.2469820922161713E+01    1.1384238119099624E+01   -5.6610944351737196E+00
C    8.9722317296493959E+00    1.2629649917937725E+01   -5.3086772415913295E+00
C    1.0415520223551217E+01    1.2615876200203166E+01   -5.4180436840587225E+00
C    1.1104611325842891E+01    1.3850211187256647E+01   -5.5402543128480364E+00
C    1.2513940267374435E+01    1.3862959009572265E+01   -5.6500337930134297E+00
C    8.9869647451187618E+00    1.5103137610877788E+01   -5.4599207724466741E+00
C    1.0407508030828147E+01    1.5090528408811338E+01   -5.5571005085765854E+00
C    1.1112797223183591E+01    1.6312622723434178E+01   -5.6844803979399394E+00
C    1.2519040538888943E+01    1.6304521534067870E+01   -5.7559309693937291E+00
C    8.9962141455237461E+00    1.7577681106109019E+01   -5.5532046460674271E+00
C    1.0425655738900373E+01    1.7581290834123706E+01   -5.5644866139577127E+00
C    1.1044923279883902E+01    6.4594754226362214E+00   -5.2311930967800668E+00
C    1.2460855315922217E+01    6.4826279036729124E+00   -5.1861799235565407E+00
C    1.3156870550088698E+01    7.6782010993032923E+00   -5.3703280633454051E+00
C    1.4635990767985195E+01    7.6827080103086329E+00   -5.3978834042887476E+00
C    1.5332202335422377E+01    8.9122525858378996E+00   -5.5021974480251048E+00
C    1.6740388242110392E+01    8.9377923818010849E+00   -5.7049914172873217E+00
C    1.3160580264364377E+01    1.0141084267880288E+01   -5.5910242769812903E+00
C    1.4604330547381714E+01    1.0147630728663833E+01   -5.6169625482856516E+00
C    1.5324334454660162E+01    1.1392523291581636E+01   -5.8292550696506904E+00
C    1.6749272909186043E+01    1.1398171987160222E+01   -5.8510617457906733E+00
C    1.3160447663002152E+01    1.2603720068404501E+01   -5.7558397877527305E+00
C    1.4576112166315069E+01    1.2613809368269568E+01   -5.9465492929980179E+00
C    1.5329559582667887E+01    1.3893744419448289E+01   -5.9493299987549983E+00
C    1.6744611014994163E+01    1.3852697722720169E+01   -5.9644857187853626E+00
C    1.3225842212259764E+01    1.5084036333698348E+01   -5.7582458264260614E+00
C    1.4599421249872131E+01    1.5123549225461071E+01   -5.8900738202416303E+00
C    1.5319469060511972E+01    1.6346120562877747E+01   -5.8064760063473715E+00
C    1.6738003460987528E+01    1.6330494765219157E+01   -5.8033678369377828E+00
C    1.3238066646579428E+01    1.7552567326259119E+01   -5.7672501038571093E+00
C    1.4677634569523429E+01    1.7604000609549274E+01   -5.8218142186074022E+00
C    1.5331535925671220E+01    6.4750670553642600E+00   -5.4056799153934119E+00
C    1.6765922490578177E+01    6.5094945565458442E+00   -5.4860924633451855E+00
C    1.7447548867544832E+01   -4.6197331649632263E+00   -5.7247141161723381E+00
C    1.8888722631119151E+01   -4.6219651480806156E+00   -5.8059113354934961E+00
C    1.9595061108582840E+01   -3.4065912349036425E+00   -5.8437203684079853E+00
C    2.1011758901160349E+01   -3.3493712969179028E+00   -5.8371208360986193E+00
C    1.7498708070745511E+01   -2.1096055276209156E+00   -5.7203013280363342E+00
C    1.8896369137146070E+01   -2.1504740079748030E+00   -5.7489356078262190E+00
C    1.9593768952999454E+01   -9.3458350533683976E-01   -5.8018455345272812E+00
C    2.0996895959260822E+01   -9.0024022234136591E-01   -5.8826285984661961E+00
C    1.7462376225427558E+01    3.1631599623031498E-01   -5.6761305224837892E+00
C    1.8852436519208744E+01    3.1505488560317096E-01   -5.7640751415250477E+00
C    1.9569763242819914E+01    1.5523778220771343E+00   -5.6971770256862930E+00
C    2.0980773962000967E+01    1.5690950361113241E+00   -5.8386683390880032E+00
C    1.7463531544654185E+01    2.8186286030666117E+00   -5.4776266062923282E+00
C    1.8883166020931338E+01    2.8103782320800450E+00   -5.6182430912746861E+00
C    1.9612543554578387E+01    4.0298100257718836E+00   -5.6715104374280729E+00
C    2.1012410990603861E+01    4.0171700509971391E+00   -5.7391344300092841E+00
C    1.7470430737623957E+01    5.2663447674804909E+00   -5.4478703615144868E+00
C    1.8875574481887742E+01    5.2254182640838343E+00   -5.6711790060270886E+00
C    1.9612140026648785E+01   -5.8214029927884532E+00   -5.7618374505404022E+00
C    2.1020427743367701E+01   -5.8233944036089564E+00   -5.7205000653314011E+00
C    2.1743499303681116E+01   -4.5867113295309325E+00   -5.9002138563583806E+00
C    2.3164519862206138E+01   -4.6293830685601129E+00   -5.9083033371047291E+00
C    2.3863156273452947E+01   -3.3703082016685948E+00   -5.8958330191606363E+00
C    2.5328629444573842E+01   -3.3718803165432578E+00   -5.7405483754006301E+00
C    2.1725069242663807E+01   -2.1251078251164310E+00   -5.8599388251936064E+00
C    2.3143653443249860E+01   -2.1341954935339777E+00   -5.9309985337611009E+00
C    2.3843159312775850E+01   -9.1166449996936705E-01   -5.7542134014787809E+00
C    2.5280975324608299E+01   -9.1247604324457054E-01   -5.6761722871998739E+00
C    2.1698521334453901E+01    3.3780176974852827E-01   -5.8950959464656307E+00
C    2.3109533834538897E+01    3.0587678294909493E-01   -5.7961736944990321E+00
C    2.3873142161761955E+01    1.5173383108554317E+00   -5.8215563348341872E+00
C    2.5271882019713598E+01    1.5193659888088238E+00   -5.6353154961973138E+00
C    2.1748182009858770E+01    2.7879970776225123E+00   -5.8010702035838149E+00
C    2.3145947341306826E+01    2.7816772456079017E+00   -5.7368568796337245E+00
C    2.3917688286399819E+01    4.0075597844156023E+00   -5.6132683885428971E+00
C    2.5334324269962657E+01    3.9821120862739319E+00   -5.5555424272388896E+00
C    2.1762249989894428E+01    5.2118494550349483E+00   -5.7188919851670708E+00
C    2.3174208393418454E+01    5.2060503891097278E+00   -5.6341738756141071E+00
C    2.3868077245576057E+01   -5.8974711101408648E+00   -5.7711708641519284E+00
C    2.5287805677875912E+01   -5.8841007368807281E+00   -5.7282394251102167E+00
C    2.6013271985556006E+01   -4.6385638251596646E+00   -5.7271441509872716E+00
C    2.7459184934326206E+01   -4.6087091186723841E+00   -5.6253873948549815E+00
C    2.8141100637139989E+01   -3.3937850663742029E+00   -5.5230658818706377E+00
C    2.9586847342432847E+01   -3.3716466094587716E+00   -5.4184524230683779E+00
C    2.5999609522588127E+01   -2.1716482086031683E+00   -5.6945959641908530E+00
C    2.7400950095430261E+01   -2.1406692188459635E+00   -5.4718047057122643E+00
C    2.8098997220425538E+01   -9.3102451912144613E-01   -5.4311794060251835E+00
C    2.9557296984960789E+01   -8.7437087023315108E-01   -5.3020242020204149E+00
C    2.5994445700874522E+01    3.0123093437320669E-01   -5.5921639314171312E+00
C    2.7372928289905321E+01    3.1787043164687284E-01   -5.3809076867991106E+00
C    2.8124764343311654E+01    1.5374307669801159E+00   -5.4757858994853335E+00
C    2.9561629645245699E+01    1.5469103617184781E+00   -5.4015815968489944E+00
C    2.6018677691593020E+01    2.7579451343463428E+00   -5.5773678459456102E+00
C    2.7422678564246656E+01    2.7456230713586773E+00   -5.5620430300308685E+00
C    2.8151133421245198E+01    3.9904525161806936E+00   -5.5499330693166469E+00
C    2.9565323781417558E+01    4.0398704747928216E+00   -5.5258626354457689E+00
C    2.6041660365123551E+01    5.2250262073188400E+00   -5.5069654167687627E+00
C    2.7443289923932973E+01    5.2468540450507613E+00   -5.5642998360933964E+00
C    2.8177501976761175E+01   -5.8490988468271459E+00   -5.4840377923521393E+00
C    2.9604693551761443E+01   -5.8554922898993311E+00   -5.4273931700029392E+00
C    1.7469668195868380E+01    7.6991461533917924E+00   -5.6124117854239515E+00
C    1.8907121869994842E+01    7.7059321918088761E+00   -5.7103285083681694E+00
C    1.9626432306247427E+01    8.9409605861550325E+00   -5.7852575987278314E+00
C    2.1043665062903596E+01    8.9303706498667541E+00   -5.7411615466026493E+00
C    1.7438524541073384E+01    1.0172719897423899E+01   -5.8855404888162495E+00
C    1.8891558225167749E+01    1.0157656248850378E+01   -5.9020905056362238E+00
C    1.9594103770373852E+01    1.1425290634577486E+01   -5.9115596607252581E+00
C    2.1003230179050785E+01    1.1399315900424163E+01   -5.7166051875671382E+00
C    1.7467765366304739E+01    1.2631318210883686E+01   -5.9589220175472795E+00
C    1.8894605365479610E+01    1.2648318155516879E+01   -5.9287046232451068E+00
C    1.9594887274337264E+01    1.3866853291983054E+01   -5.7566298263453080E+00
C    2.1022302364022099E+01    1.3877706209664240E+01   -5.6604317798167667E+00
C    1.7484380643481252E+01    1.5096737744884617E+01   -5.8737366331673320E+00
C    1.8901550260031822E+01    1.5097458180476815E+01   -5.7613753940071906E+00
C    1.9585644213262277E+01    1.6339719694517260E+01   -5.6292036939400178E+00
C    2.0997449145049142E+01    1.6369318509532828E+01   -5.6024343825447982E+00
C    1.7448342043542286E+01    1.7613822862973493E+01   -5.7210874379407946E+00
C    1.8898676120663893E+01    1.7591951266562550E+01   -5.6778952972675230E+00
C    1.9607185814303207E+01    6.4334401348000760E+00   -5.6921295467798343E+00
C    2.1022418501064532E+01    6.4820793774751007E+00   -5.7148312153888279E+00
C    2.1725598544180862E+01    7.7008121356048216E+00   -5.6837906025498253E+00
C    2.3179678272957307E+01    7.6773075326785580E+00   -5.5393106429985401E+00
C    2.3855816673403989E+01    8.9213206163013670E+00   -5.4838227130739252E+00
C    2.5295112879446222E+01    8.8565241122417149E+00   -5.3903998462380764E+00
C    2.1759951987090098E+01    1.0164952393456375E+01   -5.6732766790510762E+00
C    2.3141765352213131E+01    1.0164818340865425E+01   -5.5629390526351958E+00
C    2.3838766907578961E+01    1.1387576145671490E+01   -5.4383948391687067E+00
C    2.5288415521173714E+01    1.1350458934280876E+01   -5.3876958683184357E+00
C    2.1706112369295102E+01    1.2635878608985216E+01   -5.5707233479833294E+00
C    2.3115680297637557E+01    1.2648792356936669E+01   -5.4934721767375292E+00
C    2.3879967533042940E+01    1.3869571517518102E+01   -5.4758909670165155E+00
C    2.5333376284727635E+01    1.3811190095241059E+01   -5.5138126277956818E+00
C    2.1728995365774999E+01    1.5107268483318848E+01   -5.5064729792097129E+00
C    2.3138908374760138E+01    1.5123707728999749E+01   -5.4464993715956549E+00
C    2.3933567999009210E+01    1.6336749023871320E+01   -5.4537735757177055E+00
C    2.5359826319161098E+01    1.6299416593063007E+01   -5.4269539521601056E+00
C    2.1740033850319609E+01    1.7563511790066727E+01   -5.6180917379232325E+00
C    2.3195750141955916E+01    1.7544693318533835E+01   -5.6211158138988067E+00
C    2.3869983198999712E+01    6.4382328623783502E+00   -5.4976776901318658E+00
C    2.5315217990548465E+01    6.4495959276577413E+00   -5.4416923028677866E+00
C    2.6024960090482512E+01    7.6432691521672060E+00   -5.4458461114405319E+00
C    2.7445636309438282E+01    7.6620968270729755E+00   -5.5365604153521746E+00
C    2.8150822064363535E+01    8.9081543160517835E+00   -5.4671438581722072E+00
C    2.9572512312000416E+01    8.9823981357941154E+00   -5.5211473234074075E+00
C    2.6024596380051420E+01    1.0149077901784457E+01   -5.3988819085013615E+00
C    2.7445902214087024E+01    1.0173671304769535E+01   -5.3744310110875348E+00
C    2.8186098864357504E+01    1.1410461713950914E+01   -5.4058644811221441E+00
C    2.9585378564622520E+01    1.1459987662445020E+01   -5.4149897646890564E+00
C    2.6038762535864077E+01    1.2561964088292711E+01   -5.5017330696895117E+00
C    2.7438343246587912E+01    1.2604395428584418E+01   -5.4318018204080492E+00
C    2.8153898362789313E+01    1.3836264552485249E+01   -5.3521767785997278E+00
C    2.9598001729583334E+01    1.3913630475104480E+01   -5.3594588022484269E+00
C    2.6055279391178154E+01    1.5079702163051824E+01   -5.4543306508033949E+00
C    2.7460115929201834E+01    1.5065198014968797E+01   -5.4101457629194138E+00
C    2.8199319238171004E+01    1.6335586550381962E+01   -5.3837835197154806E+00
C    2.9605495634591019E+01    1.6354283536231115E+01   -5.3547396410834329E+00
C    2.6047127268706205E+01    1.7548745039531713E+01   -5.5814411318707524E+00
C    2.7487039997296659E+01    1.7570171759635755E+01   -5.5500615090155687E+00
C    2.8183918078997252E+01    6.4575340071400351E+00   -5.5200977782435015E+00
C    2.9609791087714576E+01    6.5322047417200997E+00   -5.4322824711426758E+00
O    3.0562556994893549E+02    1.9885189983777119E+02   -2.5159343507856011E+00
H    3.0544279286301202E+02    1.9808413525525916E+02   -1.8947155914272227E+00
H    3.0640890792936813E+02    1.9851111468965402E+02   -2.9919935701251030E+00
O    3.1392631613169010E+02    2.3861936425749550E+02    5.9628337514797973E+00
H    3.1304426623907881E+02    2.3904611768022585E+02    6.2942282341889548E+00
H    3.1462150160885164E+02    2.3900229729829368E+02    6.5466280231121150E+00
O    3.0260605719092138E+02    2.9185678247791157E+02    1.1684961541371520E+01
H    3.0317993296048422E+02    2.9187113855735919E+02    1.2511002521337096E+01
H    3.0166015984201420E+02    2.9163726167160343E+02    1.2048942958715109E+01
O    3.6871026794480201E+02    2.3353876809187318E+02   -1.7110105184984594E+00
H    3.6852719789526031E+02    2.3443064450266107E+02   -1.2692206201116192E+00
H    3.6958786754165595E+02    2.3369082869378721E+02   -2.0832165137054317E+00
O    2.8697143981104455E+02    2.8806308938025586E+02    3.3809345704993583E+00
H    2.8652195524506288E+02    2.8783913057873815E+02    2.5823657773151254E+00
H    2.8631211647606392E+02    2.8837012118704945E+02    4.0729399746857355E+00
O    2.6705872846014256E+02    2.3162860858888445E+02    9.4905386484811167E+00
H    2.6656428612255405E+02    2.3118370137566015E+02    8.7661223933418189E+00
H    2.6722778308588977E+02    2.3089217625684608E+02    1.0108585673652183E+01
O    2.9786631187429253E+02    2.2166302454738690E+02    6.2199306754073840E+00
H    2.9808663339651361E+02    2.2076613171489774E+02    5.9510910389484355E+00
H    2.9780305660505559E+02    2.2209029158137650E+02    5.3206508304522488E+00
O    3.1810470592281558E+02    1.8312578729740591E+02    6.8392866153934140E-01
H    3.1753568749465137E+02    1.8235771566091481E+02    4.4054628166897275E-01
H    3.1803169606473887E+02    1.8370233267177815E+02   -1.2288219901092823E-01
O    2.0155039699967028E+02    2.4673185522428923E+02    1.3786471058137104E+00
H    2.0248542751346235E+02    2.4674540372910286E+02    1.5534100333123471E+00
H    2.0144291820115859E+02    2.4755495113236995E+02    8.4318976320529582E-01
O    4.0828137460346738E+02    2.8691949958552124E+02    4.8497294266545028E+00
H    4.0859924200301572E+02    2.8604016274419092E+02    5.1179956943782550E+00
H    4.0907211724068679E+02    2.8744169316528257E+02    4.5387774839097208E+00
O    3.0082636117401063E+02    2.3848397436471470E+02    7.5013169988943593E+00
H    3.0014242952881057E+02    2.3778266486788158E+02    7.5293232730030937E+00
H    3.0143463191315760E+02    2.3832766559857714E+02    6.6984187207272337E+00
O    2.4998612345943434E+02    2.4155007116517720E+02    5.7038615339135434E+00
H    2.4919164063080655E+02    2.4182926399031146E+02    6.1888839487638592E+00
H    2.5010670554803522E+02    2.4216689118983868E+02    4.9445063620288483E+00
O    2.5364860267324303E+02    1.8396403654356533E+02    1.0730344039011696E+01
H    2.5462062563215380E+02    1.8416168888763775E+02    1.0827586977148629E+01
H    2.5342776903097064E+02    1.8345142500939409E+02    1.1542863002305824E+01
O    3.8335208313342321E+02    1.1500425540239416E+02    2.6367590249999490E-01
H    3.8433177441008604E+02    1.1522220375566326E+02    5.0989577993686419E-01
H    3.8289742063494219E+02    1.1487930319583913E+02    1.1573218685061624E+00
O    1.8592875056482882E+02    3.8393784265298916E+02    5.0304379995658932E+00
H    1.8590615219213527E+02    3.8410396047095867E+02    4.0471083409054422E+00
H    1.8568369290247486E+02    3.8482884641535276E+02    5.3860199151669450E+00
O    3.3371575713234694E+02    3.2006501677546657E+02    1.3413939994369125E+01
H    3.3366220825299877E+02    3.2082240075180488E+02    1.2753296190498185E+01
H    3.3383692655347295E+02    3.2044314466044142E+02    1.4312325160330467E+01
O    3.1681642836454262E+02    2.6331480789895511E+02   -1.8361788198034410E+00
H    3.1602403170999332E+02    2.6269362634927461E+02   -1.7931088749098045E+00
H    3.1725231114286964E+02    2.6327629414309320E+02   -9.8204463522009844E-01
O    2.6963810737383255E+02    2.4343444017670780E+02    4.9579325350665489E+00
H    2.6989153826931482E+02    2.4341679700243338E+02    5.9074214757279639E+00
H    2.6872228575643015E+02    2.4375037287221673E+02    4.8061053700028111E+00
O    2.8157122337403592E+02    2.4271354178015736E+02    8.3461152202507929E+00
H    2.8166333384106969E+02    2.4289015081885987E+02    7.3623670637934620E+00