 # Version information for this restart file 
 # current date 2019-01-28 03:26:15.027
 # current working dir /scratch/snx3000/gtocci/gtocci/MEMBRANES/AIMD_US_IONS_GRA/potassium/aimd_us_pot/us_30
 # Program compiled at                             Thu Oct 11 21:49:41 CEST 2018
 # Program compiled on                                                  daint104
 # Program compiled for                                   CRAY_XC50-gfortran_gpu
 # Source code revision number                                     git:be74c20a5
 &GLOBAL
   PRINT_LEVEL  LOW
   PROJECT_NAME GRAS
   RUN_TYPE  MD
   WALLTIME 10200
 &END GLOBAL
 &MOTION
   &MD
     ENSEMBLE  NVT
     STEPS  100000
     TIMESTEP     9.9999999999999989E-01
     STEP_START_VAL  40720
     TIME_START_VAL     4.0719999999990752E+04
     ECONS_START_VAL    -8.3206312001866700E+03
     TEMPERATURE     3.0000000000000000E+02
     TEMP_KIND  T
     &BAROSTAT
       PRESSURE     1.0000000000000000E+00
       TIMECON     9.9999999999999986E+01
       VIRIAL  Z
     &END BAROSTAT
     &THERMOSTAT
       TYPE  NOSE
       REGION  GLOBAL
       &NOSE
         LENGTH  4
         TIMECON     9.9999999999999986E+01
         MTS  2
         &COORD
               1.6698264149327055E-01   -1.1210937466578136E+01   -4.9557831376008163E+00    2.7889045299245780E+01
         &END COORD
         &VELOCITY
               7.1720518174136711E-07    2.3320927240031458E-04    8.0923862583112750E-05   -2.5996211499938174E-04
         &END VELOCITY
         &MASS
               7.0145132684705392E+07    1.6237299232570693E+04    1.6237299232570693E+04    1.6237299232570693E+04
         &END MASS
         &FORCE
              -5.2952851246134231E-10   -5.6287878111969062E-08   -4.1234491166209429E-09   -5.1961342314734554E-08
         &END FORCE
       &END NOSE
     &END THERMOSTAT
     &AVERAGES  T
       &RESTART_AVERAGES
         ITIMES_START  1
         AVECPU     4.6331923086925222E+01
         AVEHUGONIOT     0.0000000000000000E+00
         AVETEMP_BARO     0.0000000000000000E+00
         AVEPOT    -8.3232583435820834E+03
         AVEKIN     2.0506132862638378E+00
         AVETEMP     2.9978318909956926E+02
         AVEKIN_QM     0.0000000000000000E+00
         AVETEMP_QM     0.0000000000000000E+00
         AVEVOL     2.1331414786628078E+05
         AVECELL_A     4.8437460238125539E+01
         AVECELL_B     4.6608961231944591E+01
         AVECELL_C     9.4486306644279495E+01
         AVEALPHA     9.0000000000000057E+01
         AVEBETA     9.0000000000000057E+01
         AVEGAMMA     9.0000000000000057E+01
         AVE_ECONS    -2.1664047288754715E+00
         AVE_PRESS     0.0000000000000000E+00
         AVE_PXX     0.0000000000000000E+00
       &END RESTART_AVERAGES
     &END AVERAGES
     &PRINT
       &TEMP_KIND  SILENT
       &END TEMP_KIND
     &END PRINT
   &END MD
   &FREE_ENERGY
     &METADYN
       MIN_DISP    -1.0000000000000000E+00
       OLD_HILL_NUMBER  0
       OLD_HILL_STEP  0
       DO_HILLS  F
       STEP_START_VAL  40720
       NHILLS_START_VAL  0
       &METAVAR
         SCALE     1.0000000000000000E+00
         COLVAR  1
       &END METAVAR
       &PRINT
         &COLVAR  SILENT
           COMMON_ITERATION_LEVELS  3
           &EACH
             MD  1
           &END EACH
         &END COLVAR
       &END PRINT
     &END METADYN
   &END FREE_ENERGY
   &CONSTRAINT
     &COLLECTIVE
       COLVAR  1
       INTERMOLECULAR  T
       &RESTRAINT
         K     4.4625385281452931E-04
       &END RESTRAINT
     &END COLLECTIVE
     &COLVAR_RESTART
           2.8345891993284649E+01
     &END COLVAR_RESTART
   &END CONSTRAINT
   &PRINT
     &TRAJECTORY  SILENT
       &EACH
         MD  1
       &END EACH
     &END TRAJECTORY
     &VELOCITIES  SILENT
       &EACH
         MD  1
       &END EACH
     &END VELOCITIES
     &FORCES  SILENT
       UNIT eV*angstrom^-1
       &EACH
         MD  1
       &END EACH
     &END FORCES
     &RESTART  SILENT
       &EACH
         MD  1
       &END EACH
     &END RESTART
     &RESTART_HISTORY  SILENT
       &EACH
         MD  100
       &END EACH
     &END RESTART_HISTORY
   &END PRINT
 &END MOTION
 &FORCE_EVAL
   METHOD  QS
   &DFT
     BASIS_SET_FILE_NAME /users/gtocci/scratch_daint_3000/data_cp2k//BASIS_MOLOPT
     POTENTIAL_FILE_NAME /users/gtocci/scratch_daint_3000/data_cp2k//GTH_POTENTIALS
     WFN_RESTART_FILE_NAME ./GRAS-RESTART.wfn
     CHARGE  1
     &SCF
       MAX_SCF  10
       EPS_SCF     9.9999999999999995E-07
       SCF_GUESS  RESTART
       &OT  T
         MINIMIZER  DIIS
         PRECONDITIONER  FULL_KINETIC
       &END OT
       &OUTER_SCF  T
         EPS_SCF     9.9999999999999995E-07
         MAX_SCF  30
       &END OUTER_SCF
       &PRINT
         &RESTART  SILENT
           ADD_LAST  NUMERIC
           &EACH
             QS_SCF  50
           &END EACH
         &END RESTART
       &END PRINT
     &END SCF
     &QS
       MAP_CONSISTENT  T
       EXTRAPOLATION  ASPC
       EXTRAPOLATION_ORDER  4
     &END QS
     &MGRID
       NGRIDS  5
       CUTOFF     4.6000000000000000E+02
     &END MGRID
     &XC
       DENSITY_CUTOFF     1.0000000000000000E-10
       GRADIENT_CUTOFF     1.0000000000000000E-10
       TAU_CUTOFF     1.0000000000000000E-10
       &XC_GRID
         XC_DERIV  SPLINE2_SMOOTH
       &END XC_GRID
       &XC_FUNCTIONAL  NO_SHORTCUT
         &LIBXC  T
           FUNCTIONAL XC_GGA_X_OPTB88_VDW
         &END LIBXC
         &VWN  T
         &END VWN
       &END XC_FUNCTIONAL
       &VDW_POTENTIAL
         POTENTIAL_TYPE  NON_LOCAL
         &NON_LOCAL
           TYPE  DRSLL
           VERBOSE_OUTPUT  T
           KERNEL_FILE_NAME /users/gtocci/scratch_daint_3000/data_cp2k//vdW_kernel_table.dat
         &END NON_LOCAL
       &END VDW_POTENTIAL
     &END XC
     &REAL_TIME_PROPAGATION
       INITIAL_WFN  SCF_WFN
     &END REAL_TIME_PROPAGATION
     &PRINT
       &MULLIKEN  SILENT
         FILENAME =GRAS.mulliken
       &END MULLIKEN
     &END PRINT
   &END DFT
   &SUBSYS
     &CELL
       A     2.5632000000000001E+01    0.0000000000000000E+00    0.0000000000000000E+00
       B     0.0000000000000000E+00    2.4664400000000022E+01    0.0000000000000000E+00
       C     0.0000000000000000E+00    0.0000000000000000E+00    5.0000000000000028E+01
       MULTIPLE_UNIT_CELL  1 1 1
     &END CELL
     &COORD
C    8.4208210225856703E+00   -1.9746105777868532E+00    3.8154996411682727E+00
C    9.8459827684913126E+00   -2.0044580845495066E+00    3.8880823328710781E+00
C    1.0561649213352833E+01   -7.8452438484604170E-01    3.9667922468776813E+00
C    1.1988295243145322E+01   -7.3863915448602369E-01    4.0677836391021787E+00
C    8.4460002053824095E+00    5.1144101231101347E-01    3.8006351847570832E+00
C    9.8426852377080536E+00    4.6068227175623933E-01    3.9375749330101208E+00
C    1.0539915825953416E+01    1.6804599839195351E+00    3.9724892017482403E+00
C    1.1977776209483471E+01    1.6946906240243578E+00    3.8386284367786332E+00
C    8.4293364475499875E+00    2.9906484949064138E+00    3.8108127541369852E+00
C    9.8329589391868151E+00    2.9594758045153053E+00    3.8911406885223800E+00
C    1.0574055648363844E+01    4.1887937720297117E+00    3.8335500852035107E+00
C    1.2020672649934586E+01    4.1949564951044431E+00    3.8348508340005414E+00
C    8.4633372804567770E+00    5.4663419236714414E+00    3.7918655532040657E+00
C    9.9059696985061496E+00    5.4464161138723890E+00    3.8765866652702727E+00
C    1.0588224808473200E+01    6.6663061584260621E+00    3.8522533574468172E+00
C    1.2024162842636800E+01    6.6647044405917564E+00    3.8367867886244196E+00
C    8.4954665588596043E+00    7.9111520152446344E+00    3.8729480641683938E+00
C    9.9013048878294168E+00    7.8971998661597880E+00    3.8753312713768935E+00
C    1.0562439841876067E+01   -3.2340538836620754E+00    3.9442983483632705E+00
C    1.2005528670982349E+01   -3.1941268549519846E+00    4.1184546558363788E+00
C    1.2708285373241766E+01   -1.9661654486546205E+00    4.1501800968836937E+00
C    1.4165225123203307E+01   -1.9748756300443762E+00    4.0875727409203728E+00
C    1.4858455697712625E+01   -7.7337274569837522E-01    4.0024471930219692E+00
C    1.6291913234308939E+01   -7.3237360267105733E-01    4.0741388281567241E+00
C    1.2691757046454232E+01    4.9801387683812748E-01    3.9880507584812062E+00
C    1.4134533099831129E+01    4.9441393322525062E-01    3.9311242611558774E+00
C    1.4881333051215373E+01    1.7854283624697345E+00    3.8767980899774583E+00
C    1.6298366081886282E+01    1.7687459165896278E+00    3.9411862901941266E+00
C    1.2678584436782245E+01    2.9550634435420471E+00    3.8102849461183350E+00
C    1.4126794988768008E+01    2.9801070870617345E+00    3.7889356065571658E+00
C    1.4854237934586658E+01    4.1929286599445179E+00    3.8078435984463144E+00
C    1.6277384317591547E+01    4.2077643951612140E+00    3.9217237354323529E+00
C    1.2721743873078040E+01    5.4507214549446914E+00    3.7482467181375037E+00
C    1.4143927764623847E+01    5.4311901073820978E+00    3.7319286940789036E+00
C    1.4846601255933576E+01    6.6800915967941910E+00    3.8336246849325959E+00
C    1.6273346282791628E+01    6.7040680904730099E+00    3.9666228171073681E+00
C    1.2735559365681349E+01    7.8990381302665540E+00    3.7777670685619360E+00
C    1.4149635414174861E+01    7.9583358327451359E+00    3.7940492512665691E+00
C    1.4859418585223038E+01   -3.1989497349048395E+00    4.0646613930954114E+00
C    1.6299998953955395E+01   -3.1776955836631613E+00    4.1107257520675384E+00
C    1.7002418692166032E+01   -1.9709866290247557E+00    4.1897853328597714E+00
C    1.8426819247046659E+01   -1.9269897720694000E+00    4.2314976966601678E+00
C    1.9123759013106159E+01   -6.9592880664987222E-01    4.2511636260478287E+00
C    2.0538585503650960E+01   -6.8779408211144244E-01    4.2074749500683621E+00
C    1.6999062413595048E+01    5.2755344947570837E-01    4.0417630783075600E+00
C    1.8405930532409140E+01    5.4456416662330853E-01    4.2568074924077761E+00
C    1.9140438553570672E+01    1.7563302068574753E+00    4.1636506621823148E+00
C    2.0581588697841806E+01    1.7421930018386642E+00    4.1653896191639532E+00
C    1.6986931179902552E+01    2.9982149069380770E+00    3.9977001784403505E+00
C    1.8405964206417266E+01    2.9751798305237207E+00    4.1222640356241893E+00
C    1.9111995549912375E+01    4.2328726038148030E+00    4.0388824216098183E+00
C    2.0509829663909187E+01    4.1953071529665396E+00    3.9766994230335988E+00
C    1.6974708349593239E+01    5.4801536345245152E+00    3.9441517952815444E+00
C    1.8391458608897011E+01    5.4635582621033603E+00    4.0408596105468133E+00
C    1.9110352646117928E+01    6.7235382630128475E+00    4.0423051956233378E+00
C    2.0559639397276730E+01    6.6692716860035768E+00    3.8563598161290926E+00
C    1.6996013890114430E+01    7.9551679266421536E+00    3.9622973320847610E+00
C    1.8413050092787930E+01    7.9523340615583136E+00    3.9994484023206214E+00
C    1.9135172279960361E+01   -3.1531281460979010E+00    4.2701306169853170E+00
C    2.0566325212582207E+01   -3.1127562530884387E+00    4.1393419045030173E+00
C    8.4624100300787592E+00    1.0392108074408924E+01    3.6540283292303499E+00
C    9.8938186321653596E+00    1.0330088048190330E+01    3.6617078852373659E+00
C    1.0604788994302151E+01    1.1568030583776547E+01    3.5823789327212663E+00
C    1.2006765075600645E+01    1.1585862751741944E+01    3.6581955865931222E+00
C    8.4194407227078703E+00    1.2817945186759545E+01    3.7284783945346360E+00
C    9.8494988762439597E+00    1.2780688487081331E+01    3.6484253033648342E+00
C    1.0544923920362692E+01    1.4041353260286709E+01    3.6279509637398411E+00
C    1.1963737641281712E+01    1.4041692604217328E+01    3.5976617804760207E+00
C    8.4627634970234897E+00    1.5298820897190513E+01    3.6922916951236351E+00
C    9.8920785772801931E+00    1.5298577154686088E+01    3.7272802409294683E+00
C    1.0563244722179395E+01    1.6596801025419875E+01    3.7354229182310639E+00
C    1.1956812945018852E+01    1.6580459176212820E+01    3.6921554398805809E+00
C    8.4274400286694942E+00    1.7796751785701630E+01    3.6902126060206126E+00
C    9.8134687841270232E+00    1.7795629881757609E+01    3.7949518978693737E+00
C    1.0551847482635601E+01    1.9000217793047575E+01    3.8777789423283195E+00
C    1.2023087653158511E+01    1.8984815344123966E+01    3.8671302846154521E+00
C    8.4089630220290257E+00    2.0264753354282568E+01    3.8214665408241153E+00
C    9.8489520581363976E+00    2.0208629799961294E+01    3.9666955989922643E+00
C    1.0611384410421547E+01    9.1140524632305464E+00    3.7215883744495710E+00
C    1.2016289100960398E+01    9.1621353542131025E+00    3.7222320227694174E+00
C    1.2720155679913715E+01    1.0384264476219322E+01    3.6673577155840764E+00
C    1.4134853810681404E+01    1.0409912021346075E+01    3.6774094045826793E+00
C    1.4840903765479586E+01    1.1611828556496322E+01    3.7375579603145535E+00
C    1.6255830045805240E+01    1.1630496276055659E+01    3.7985778264674419E+00
C    1.2663993201966614E+01    1.2814594137342795E+01    3.5745582902665110E+00
C    1.4108225113167489E+01    1.2812369697502225E+01    3.6755253710688187E+00
C    1.4778179728123160E+01    1.4053906374772849E+01    3.7792210934761705E+00
C    1.6207063515293214E+01    1.4103937643699373E+01    3.8026135541379995E+00
C    1.2653405245910863E+01    1.5301751263445375E+01    3.6374836693036841E+00
C    1.4062826656623781E+01    1.5297137187774462E+01    3.7548720849843766E+00
C    1.4810440710747214E+01    1.6550641495342173E+01    3.8457559816324713E+00
C    1.6219263857731136E+01    1.6530758057743455E+01    3.8895770937572469E+00
C    1.2717048989506134E+01    1.7779186824597151E+01    3.7767140224836098E+00
C    1.4144607176467781E+01    1.7787708886478459E+01    3.8761270702078208E+00
C    1.4884528460697430E+01    1.9024188143956838E+01    3.9337850984390998E+00
C    1.6299453887423521E+01    1.9029658513356857E+01    3.9696991287356314E+00
C    1.2726127083739437E+01    2.0213844614025444E+01    3.9928040686164352E+00
C    1.4155582273661958E+01    2.0246484983348235E+01    4.0047303688761344E+00
C    1.4837355929194924E+01    9.2010523350232400E+00    3.8077302684810688E+00
C    1.6277295434057478E+01    9.1913814653566170E+00    3.8409916896056724E+00
C    1.6990666794187206E+01    1.0435293882098165E+01    3.8064189185265844E+00
C    1.8412632555102952E+01    1.0431357998999584E+01    3.8465646086810055E+00
C    1.9141121616623160E+01    1.1632558392146017E+01    3.7670545902181054E+00
C    2.0545602798992618E+01    1.1644177798696303E+01    3.6815665518131921E+00
C    1.6949969828846765E+01    1.2871820795359422E+01    3.8606150348861026E+00
C    1.8415343425884640E+01    1.2865149005389050E+01    3.7569442749233897E+00
C    1.9094031351695318E+01    1.4113847668376781E+01    3.7295340394436605E+00
C    2.0540709706887959E+01    1.4085794259572161E+01    3.6527873349854962E+00
C    1.6934360668969553E+01    1.5307441803396177E+01    3.8378940161450990E+00
C    1.8394045459654212E+01    1.5333468891547639E+01    3.8473440216459069E+00
C    1.9139335392460147E+01    1.6548423781340940E+01    3.9226318674903169E+00
C    2.0554766644716683E+01    1.6555517899575474E+01    3.7951540296864228E+00
C    1.6976473520154837E+01    1.7787532777239893E+01    3.8745939044619924E+00
C    1.8406928547724757E+01    1.7765824455094549E+01    3.9518495242165042E+00
C    1.9128889433982913E+01    1.9040368961297819E+01    4.0456802862693850E+00
C    2.0555923026676734E+01    1.9059831751486762E+01    3.9332721848011927E+00
C    1.6998465080847854E+01    2.0238767076528866E+01    4.0469444105085524E+00
C    1.8415515422761633E+01    2.0301695544911531E+01    4.0827679584106544E+00
C    1.9151545237590923E+01    9.1782754939892488E+00    3.9268380500908817E+00
C    2.0598468407689094E+01    9.1603579697620887E+00    3.8179690026087427E+00
C    2.1268801599392305E+01   -1.8983729542866288E+00    4.1889752646463680E+00
C    2.2695708623619215E+01   -1.8783168287575087E+00    4.2180060679282745E+00
C    2.3448936685348990E+01   -6.8091240904599448E-01    4.2684012458445073E+00
C    2.4870443328720828E+01   -6.5621485835992599E-01    4.2759055259143430E+00
C    2.1274675066170115E+01    5.4275524425883392E-01    4.2058948646451322E+00
C    2.2712447130448780E+01    4.9756821473518997E-01    4.2275761665330656E+00
C    2.3413185632048297E+01    1.7240744539384081E+00    4.0525153141218055E+00
C    2.4854279655415581E+01    1.8140555012283730E+00    4.2132067774328377E+00
C    2.1265116090896086E+01    2.9854593636323843E+00    4.0078200833956226E+00
C    2.2690411750789711E+01    2.9719707906788346E+00    4.0002309203444719E+00
C    2.3408483686134648E+01    4.2123499829887754E+00    3.9263573059299577E+00
C    2.4856436515581596E+01    4.2007900147093222E+00    3.9009311109205278E+00
C    2.1239708116480223E+01    5.4120760972882671E+00    3.8191743944124323E+00
C    2.2690005460566894E+01    5.4150601847625550E+00    3.8550041706932494E+00
C    2.3416719940705065E+01    6.6329618504413688E+00    3.7869352056270880E+00
C    2.4830179573068179E+01    6.6368348866708429E+00    3.6398570408509250E+00
C    2.1250541458530044E+01    7.8978533645449041E+00    3.8225300864131748E+00
C    2.2684258352401297E+01    7.9223792693394595E+00    3.7723538419431959E+00
C    2.3403284752759305E+01   -3.1149567378281851E+00    4.1705464515564712E+00
C    2.4829297902019292E+01   -3.1439254895034696E+00    4.1542321807144900E+00
C    2.5535993847895082E+01   -1.8920546440732966E+00    4.1144438282535418E+00
C    2.6953591435213969E+01   -1.9326465862122717E+00    4.0300591943690476E+00
C    2.7674850892641963E+01   -6.7920489174050325E-01    3.9817148316872610E+00
C    2.9097279374015990E+01   -6.4718200323844766E-01    3.7839835359603167E+00
C    2.5571177789794980E+01    5.6513786246549036E-01    4.2178486805634989E+00
C    2.6981186018612188E+01    5.4373403033893009E-01    4.1431157034446215E+00
C    2.7702886004578918E+01    1.7734841910212131E+00    4.0591845800214248E+00
C    2.9118043014639245E+01    1.7867410984006034E+00    3.9663789455931444E+00
C    2.5582037501081984E+01    3.0226298176550368E+00    4.1298641604688990E+00
C    2.7014374754828946E+01    3.0122462540201749E+00    4.1158301279040437E+00
C    2.7705620260916856E+01    4.2272359948831575E+00    3.9221875272754483E+00
C    2.9125655931330201E+01    4.2351775578857911E+00    3.8273911056031822E+00
C    2.5529907067604153E+01    5.4274221048421225E+00    3.8182618789055369E+00
C    2.6949858189570456E+01    5.4371370997673951E+00    3.8483453971789903E+00
C    2.7652958420166996E+01    6.6959646319099955E+00    3.7133667193407605E+00
C    2.9087419032659195E+01    6.6710003369026394E+00    3.7159923054028492E+00
C    2.5514091339909928E+01    7.8690486681085510E+00    3.5580673950450632E+00
C    2.6955153539354274E+01    7.8875926515941579E+00    3.5544279012164508E+00
C    2.7669797937621205E+01   -3.1641846936656073E+00    3.8697573621030457E+00
C    2.9076833882865909E+01   -3.1412728595227257E+00    3.7359068380512763E+00
C    2.9792536416313375E+01   -1.8864724900762790E+00    3.6867925662361527E+00
C    3.1215065845437316E+01   -1.9412597557654441E+00    3.7389565033760599E+00
C    3.1942514534477223E+01   -7.0013495355354916E-01    3.7718017445573437E+00
C    3.3348289878264112E+01   -7.2244238767709568E-01    3.7737439810554037E+00
C    2.9825743054838643E+01    5.1633062814082797E-01    3.8581083451889682E+00
C    3.1256353642705477E+01    5.2614259189238266E-01    3.8360270790094697E+00
C    3.1919230281094958E+01    1.7697763961583186E+00    3.8122984798994630E+00
C    3.3329317269793968E+01    1.7489717792787696E+00    3.7101234111834476E+00
C    2.9835477759949939E+01    2.9991043932309549E+00    3.9372672664318054E+00
C    3.1258766909111564E+01    2.9836039134691523E+00    3.7446161702270220E+00
C    3.1943826614059919E+01    4.2351080707059872E+00    3.7714286885461634E+00
C    3.3372433635847088E+01    4.2626099667602171E+00    3.7565863728192919E+00
C    2.9825712481113619E+01    5.4664521758390183E+00    3.7723056336107370E+00
C    3.1253336637253845E+01    5.4567403044466012E+00    3.7711080423112220E+00
C    3.1958320063647889E+01    6.6968018040903106E+00    3.7600153742931979E+00
C    3.3385952776683517E+01    6.6694783455757909E+00    3.8149782620985282E+00
C    2.9782532394751613E+01    7.8906137480579002E+00    3.6538867112883864E+00
C    3.1224967265644722E+01    7.9114746047688955E+00    3.7521863743370591E+00
C    3.1896217912069144E+01   -3.1906775991476013E+00    3.7146831683166646E+00
C    3.3317906578115725E+01   -3.1770583413381885E+00    3.8107586556549093E+00
C    2.1280780405335218E+01    1.0388973247316848E+01    3.7129872091115113E+00
C    2.2728075872480439E+01    1.0368982254021663E+01    3.7002206263033033E+00
C    2.3430940939505319E+01    1.1598013969810109E+01    3.5410550126084366E+00
C    2.4852218210261640E+01    1.1592062073778067E+01    3.4850501827928722E+00
C    2.1294462774056427E+01    1.2893162541314712E+01    3.6629596337455825E+00
C    2.2713659276642574E+01    1.2867502032544365E+01    3.5397043577359137E+00
C    2.3377422488003464E+01    1.4113727053507453E+01    3.3684241980713283E+00
C    2.4794676357267207E+01    1.4094342552557400E+01    3.3059465167862951E+00
C    2.1261618011361048E+01    1.5332226423293413E+01    3.6445929940029655E+00
C    2.2688683338457334E+01    1.5355903867194156E+01    3.4893298399580561E+00
C    2.3394349201041354E+01    1.6614475319747857E+01    3.5019340776357430E+00
C    2.4795269574823219E+01    1.6599521954776520E+01    3.4765487628760274E+00
C    2.1264771548991760E+01    1.7834906418376072E+01    3.8231254412527385E+00
C    2.2693082387515723E+01    1.7856800344539064E+01    3.6559447529665170E+00
C    2.3406117845436796E+01    1.9118330377994297E+01    3.8408789758280024E+00
C    2.4839723908784414E+01    1.9043409967409058E+01    3.8513705263739189E+00
C    2.1289153053219959E+01    2.0313147781136966E+01    3.9937160553468734E+00
C    2.2720617510799016E+01    2.0333883950583289E+01    3.9759208521887843E+00
C    2.3411243603772924E+01    9.1247809911441795E+00    3.6763396942510949E+00
C    2.4830332258699528E+01    9.0927419524411714E+00    3.5715280320520439E+00
C    2.5537086898046415E+01    1.0376083107881698E+01    3.4922293145640415E+00
C    2.6916151674314271E+01    1.0350189535381281E+01    3.4749219024493163E+00
C    2.7642838879503145E+01    1.1626805713285558E+01    3.6016246551082589E+00
C    2.9086381734286714E+01    1.1634409878942076E+01    3.6545227155405344E+00
C    2.5520891800609604E+01    1.2834001669934226E+01    3.4190058236250072E+00
C    2.6948682379880626E+01    1.2890651728011122E+01    3.4832120077764648E+00
C    2.7688810917507780E+01    1.4104855714295235E+01    3.4482470994234258E+00
C    2.9104480410084197E+01    1.4074575259273297E+01    3.5074800090739919E+00
C    2.5511703959474595E+01    1.5355496774549929E+01    3.3802883431398412E+00
C    2.6937718809778566E+01    1.5357265248353487E+01    3.4194483415225365E+00
C    2.7649511237207303E+01    1.6600982204560626E+01    3.4722713030293018E+00
C    2.9096666112739403E+01    1.6550420971116658E+01    3.4366764236037923E+00
C    2.5507855232810307E+01    1.7834842583488520E+01    3.6707737470734090E+00
C    2.6909272202954014E+01    1.7804409867758853E+01    3.6369686060542508E+00
C    2.7625795533512825E+01    1.9032349264909517E+01    3.7698275039158289E+00
C    2.9060285936766412E+01    1.9034042792866558E+01    3.6480475868547404E+00
C    2.5521095288121824E+01    2.0303337466064725E+01    4.0166736839395565E+00
C    2.6958623282887501E+01    2.0271052205221110E+01    3.8914460859611162E+00
C    2.7654708619806250E+01    9.1286623433517953E+00    3.4990757550954026E+00
C    2.9071030669028357E+01    9.1410617595671368E+00    3.5404769040072805E+00
C    2.9746230009447700E+01    1.0363442534203065E+01    3.6750963749466425E+00
C    3.1196382346356241E+01    1.0349548023466223E+01    3.7982277019010660E+00
C    3.1914935753139144E+01    1.1622797961218815E+01    3.7867241506616098E+00
C    3.3350000398431646E+01    1.1618103923758841E+01    3.7388153621729505E+00
C    2.9806365057711364E+01    1.2850226490093958E+01    3.6508414446124955E+00
C    3.1215232594649851E+01    1.2850628675874674E+01    3.7259321493863973E+00
C    3.1966523797255121E+01    1.4063736827927483E+01    3.5888802742170025E+00
C    3.3354701936599959E+01    1.4075137067877401E+01    3.7015163692817041E+00
C    2.9826250286475211E+01    1.5338582788085807E+01    3.4913908424209299E+00
C    3.1264940736082927E+01    1.5336768206578840E+01    3.5277350000916923E+00
C    3.1936541749679428E+01    1.6561566536474889E+01    3.5767391985107584E+00
C    3.3360675899398785E+01    1.6550903039370432E+01    3.5692069415366112E+00
C    2.9768115905245228E+01    1.7807391668323199E+01    3.5153617950344302E+00
C    3.1221543371631231E+01    1.7788786829215308E+01    3.5960055231253487E+00
C    3.1932212234680151E+01    1.9005617478395639E+01    3.5881178474135953E+00
C    3.3345494197740273E+01    1.9039213943819995E+01    3.6722170226545803E+00
C    2.9762310607965777E+01    2.0264392095000716E+01    3.6946854222597101E+00
C    3.1215292429560879E+01    2.0244372566472286E+01    3.6811914700193533E+00
C    3.1945797878112199E+01    9.1389632042460267E+00    3.8625397253495111E+00
C    3.3370900491164250E+01    9.1656140124234824E+00    3.8235668948158499E+00
O    2.8621667816316477E+02   -2.3799458665827835E+01    1.4130347231600622E+01
H    2.8586284496044806E+02   -2.3796737678073523E+01    1.3179101460382119E+01
H    2.8669767087426345E+02   -2.2951392134146246E+01    1.4328618240770846E+01
O    2.7075095748627558E+02    2.5939854476956469E+01    9.3584320332409945E+00
H    2.6983148832399854E+02    2.5645958918507581E+01    9.1725665116487285E+00
H    2.7112080618281351E+02    2.6361929491316861E+01    8.5839773316098302E+00
O    2.6826391015773265E+02    1.9462553604815213E+02    8.1096722018497278E+00
H    2.6738803788068236E+02    1.9463304120807791E+02    7.7078268635449394E+00
H    2.6864181987062381E+02    1.9550975177263405E+02    7.8707038561307101E+00
O    3.7079955876518068E+02   -2.2478060186147172E+01    2.1306050255642379E+01
H    3.7122476297293161E+02   -2.3330937659568185E+01    2.1583215561684806E+01
H    3.7001340647887889E+02   -2.2433997573934263E+01    2.1950938550197936E+01
O    2.2714218114871690E+02    1.1789684148044859E+02    1.7704891146442165E+01
H    2.2780904064474461E+02    1.1719123408924754E+02    1.7499210811720356E+01
H    2.2666675019405758E+02    1.1745312411168292E+02    1.8524427645778921E+01
O    2.8820768655058419E+02    4.3188871360231900E+01    6.6118039377189923E+00
H    2.8908975727670895E+02    4.3039164578142810E+01    6.2865020710491404E+00
H    2.8817632107016499E+02    4.3421743266149598E+01    7.5599011399750307E+00
O    2.1331694039694025E+02    7.3054226706880058E+01    7.2598948612596450E+00
H    2.1240631404800271E+02    7.2640126939702839E+01    7.3118985671631629E+00
H    2.1388705358727253E+02    7.2371831778959049E+01    6.9256149119104853E+00
O    2.4034145103822124E+02   -6.1881133522827831E+01    2.1282910361136491E+01
H    2.4082402104621741E+02   -6.2686427283410602E+01    2.1443947864069820E+01
H    2.3982900476367459E+02   -6.1968231926729608E+01    2.0413650279030765E+01
O    1.6157557834375149E+02    8.3671937294267138E+01    1.0764479937744772E+01
H    1.6065660399018097E+02    8.3400151056567537E+01    1.0367514472460828E+01
H    1.6206850962745281E+02    8.2864374297025037E+01    1.0800099727372562E+01
O    3.1466483137173771E+02    1.2022002231069357E+02    1.1693500298556835E+01
H    3.1533445383175143E+02    1.2063421542748962E+02    1.2263909969188859E+01
H    3.1382531549142692E+02    1.2074622704516732E+02    1.1772948722617489E+01
O    1.6438427026462000E+02    3.4955159862634758E+01    1.1920264020231114E+01
H    1.6382533907388927E+02    3.5792431792519729E+01    1.2010414301584600E+01
H    1.6423148783219526E+02    3.4653418691249911E+01    1.0984574175591552E+01
O    1.6853336097919444E+02    1.6299315774126239E+01    7.3051866904629410E+00
H    1.6768655336379524E+02    1.6430768759065941E+01    6.8675623352830932E+00
H    1.6886966127465934E+02    1.7281049913427967E+01    7.4399644336822330E+00
O    2.1940453629927765E+02   -6.4508739378389620E+01    7.2093806615566418E+00
H    2.1946516872073161E+02   -6.5115381949980872E+01    8.0025166937311987E+00
H    2.2030810674135276E+02   -6.4314473840066867E+01    6.9237235846042919E+00
O    2.1756556846882231E+02   -4.9301989328439291E+01    7.3699137093974869E+00
H    2.1679967028929326E+02   -4.8834551314137087E+01    7.7328546966627405E+00
H    2.1769082694866958E+02   -4.9135970099010372E+01    6.4199293086069922E+00
O    1.0036617239651275E+02    1.8450332224108763E+02    1.3942319014797732E+01
H    1.0072172746920245E+02    1.8484157455884932E+02    1.3127018613772826E+01
H    1.0054994313654109E+02    1.8353943816243557E+02    1.3806406987452828E+01
O    2.3749167229822862E+02    6.1221160237728043E+01    2.2341132149878632E+01
H    2.3846901823023816E+02    6.1409059735671292E+01    2.2315616984099762E+01
H    2.3713821905572701E+02    6.1635835621487217E+01    2.1547729241905373E+01
O    2.3618461126832824E+02    1.0499622582190599E+02    1.6873100155449610E+01
H    2.3720303586015834E+02    1.0502084898139543E+02    1.6985004706571310E+01
H    2.3607549018213680E+02    1.0473211554596335E+02    1.5879306349672618E+01
O    2.5505723861751574E+02   -1.1307404459417343E+01    7.2854655006769375E+00
H    2.5509933457895323E+02   -1.1913211992908010E+01    6.5181064130894697E+00
H    2.5585967393178035E+02   -1.0762604843880105E+01    7.2058446227176063E+00
O    2.5948391877677233E+02    8.7677478408610455E+01    7.4707689944542963E+00
H    2.6029254608288755E+02    8.7139582231876275E+01    7.3356894280718867E+00