 # Version information for this restart file 
 # current date 2020-04-18 07:17:40.976
 # current working dir /scratch/snx3000/gtocci/gtocci/MEMBRANES/AIMD_US_IONS_GRA/us_aimd_new/us_29
 # Program compiled at                              Fri Nov 22 15:19:42 CET 2019
 # Program compiled on                                                  daint102
 # Program compiled for                                   CRAY_XC50-gfortran_gpu
 # Source code revision number                                       git:a698b45
 &GLOBAL
   PRINT_LEVEL  LOW
   PROJECT_NAME GRAS
   RUN_TYPE  MD
   WALLTIME 86400
 &END GLOBAL
 &MOTION
   &MD
     ENSEMBLE  NVT
     STEPS  2000
     TIMESTEP     9.9999999999999989E-01
     STEP_START_VAL  74068
     TIME_START_VAL     7.4067999999939522E+04
     ECONS_START_VAL    -8.3018658804034640E+03
     TEMPERATURE     3.0000000000000000E+02
     TEMP_KIND  T
     &BAROSTAT
       PRESSURE     1.0000000000000000E+00
       TIMECON     9.9999999999999986E+01
       VIRIAL  Z
     &END BAROSTAT
     &THERMOSTAT
       TYPE  NOSE
       REGION  GLOBAL
       &NOSE
         LENGTH  4
         TIMECON     9.9999999999999986E+01
         MTS  2
         &COORD
               2.7643677737918870E-02    7.6556664448368261E+00   -2.9745174496361484E+00    6.1839970065719179E+00
         &END COORD
         &VELOCITY
               3.0086093850740278E-07   -2.5423885551735645E-04   -9.8997010522614763E-05    1.3410143357756696E-05
         &END VELOCITY
         &MASS
               7.0145132684705392E+07    1.6237299232570693E+04    1.6237299232570693E+04    1.6237299232570693E+04
         &END MASS
         &FORCE
              -1.0967938207701152E-09   -5.8118979095444588E-08    6.1273818046701841E-09   -4.8709605757690374E-08
         &END FORCE
       &END NOSE
     &END THERMOSTAT
     &AVERAGES  T
       &RESTART_AVERAGES
         ITIMES_START  1
         AVECPU     3.1093487879626682E+01
         AVEHUGONIOT     0.0000000000000000E+00
         AVETEMP_BARO     0.0000000000000000E+00
         AVEPOT    -8.3066954263261650E+03
         AVEKIN     2.0533812980826349E+00
         AVETEMP     3.0017556131920827E+02
         AVEKIN_QM     0.0000000000000000E+00
         AVETEMP_QM     0.0000000000000000E+00
         AVEVOL     2.1331414786626332E+05
         AVECELL_A     4.8437460238122028E+01
         AVECELL_B     4.6608961231948342E+01
         AVECELL_C     9.4486306644281314E+01
         AVEALPHA     9.0000000000000043E+01
         AVEBETA     9.0000000000000043E+01
         AVEGAMMA     9.0000000000000043E+01
         AVE_ECONS    -5.6182424563422342E+02
         AVE_PRESS     0.0000000000000000E+00
         AVE_PXX     0.0000000000000000E+00
       &END RESTART_AVERAGES
     &END AVERAGES
     &PRINT
       &TEMP_KIND  SILENT
       &END TEMP_KIND
     &END PRINT
   &END MD
   &FREE_ENERGY
     &METADYN
       MIN_DISP    -1.0000000000000000E+00
       OLD_HILL_NUMBER  0
       OLD_HILL_STEP  0
       DO_HILLS  F
       STEP_START_VAL  74068
       NHILLS_START_VAL  0
       &METAVAR
         SCALE     1.0000000000000000E+00
         COLVAR  1
       &END METAVAR
       &PRINT
         &COLVAR  SILENT
           COMMON_ITERATION_LEVELS  3
           &EACH
             MD  1
           &END EACH
         &END COLVAR
       &END PRINT
     &END METADYN
   &END FREE_ENERGY
   &CONSTRAINT
     &COLLECTIVE
       COLVAR  1
       INTERMOLECULAR  T
       &RESTRAINT
         K     4.4625385281452931E-04
       &END RESTRAINT
     &END COLLECTIVE
     &COLVAR_RESTART
           2.7401028926841832E+01
     &END COLVAR_RESTART
   &END CONSTRAINT
   &PRINT
     &TRAJECTORY  SILENT
       &EACH
         MD  1
       &END EACH
     &END TRAJECTORY
     &VELOCITIES  SILENT
       &EACH
         MD  1
       &END EACH
     &END VELOCITIES
     &FORCES  SILENT
       UNIT eV*angstrom^-1
       &EACH
         MD  1
       &END EACH
     &END FORCES
     &RESTART  SILENT
       &EACH
         MD  1
       &END EACH
     &END RESTART
     &RESTART_HISTORY  SILENT
       &EACH
         MD  100
       &END EACH
     &END RESTART_HISTORY
   &END PRINT
 &END MOTION
 &FORCE_EVAL
   METHOD  QS
   &DFT
     BASIS_SET_FILE_NAME /users/gtocci/scratch_daint_3000/data_cp2k//BASIS_MOLOPT
     POTENTIAL_FILE_NAME /users/gtocci/scratch_daint_3000/data_cp2k//GTH_POTENTIALS
     WFN_RESTART_FILE_NAME ./GRAS-RESTART.wfn
     CHARGE  -1
     &SCF
       MAX_SCF  10
       EPS_SCF     9.9999999999999995E-07
       SCF_GUESS  RESTART
       &OT  T
         MINIMIZER  DIIS
         PRECONDITIONER  FULL_KINETIC
       &END OT
       &OUTER_SCF  T
         EPS_SCF     9.9999999999999995E-07
         MAX_SCF  30
       &END OUTER_SCF
       &PRINT
         &RESTART  SILENT
           ADD_LAST  NUMERIC
           &EACH
             QS_SCF  50
           &END EACH
         &END RESTART
       &END PRINT
     &END SCF
     &QS
       MAP_CONSISTENT  T
       EXTRAPOLATION  ASPC
       EXTRAPOLATION_ORDER  4
     &END QS
     &MGRID
       NGRIDS  5
       CUTOFF     4.6000000000000000E+02
     &END MGRID
     &XC
       DENSITY_CUTOFF     1.0000000000000000E-10
       GRADIENT_CUTOFF     1.0000000000000000E-10
       TAU_CUTOFF     1.0000000000000000E-10
       &XC_GRID
         XC_DERIV  SPLINE2_SMOOTH
       &END XC_GRID
       &XC_FUNCTIONAL  NO_SHORTCUT
         &LIBXC  T
           FUNCTIONAL XC_GGA_X_OPTB88_VDW
         &END LIBXC
         &VWN  T
         &END VWN
       &END XC_FUNCTIONAL
       &VDW_POTENTIAL
         POTENTIAL_TYPE  NON_LOCAL
         &NON_LOCAL
           TYPE  DRSLL
           VERBOSE_OUTPUT  T
           KERNEL_FILE_NAME /users/gtocci/scratch_daint_3000/data_cp2k//vdW_kernel_table.dat
         &END NON_LOCAL
       &END VDW_POTENTIAL
     &END XC
     &REAL_TIME_PROPAGATION
       INITIAL_WFN  SCF_WFN
     &END REAL_TIME_PROPAGATION
     &PRINT
       &MULLIKEN  SILENT
         FILENAME =GRAS.mulliken
       &END MULLIKEN
     &END PRINT
   &END DFT
   &SUBSYS
     &CELL
       A     2.5632000000000001E+01    0.0000000000000000E+00    0.0000000000000000E+00
       B     0.0000000000000000E+00    2.4664400000000022E+01    0.0000000000000000E+00
       C     0.0000000000000000E+00    0.0000000000000000E+00    5.0000000000000028E+01
       MULTIPLE_UNIT_CELL  1 1 1
     &END CELL
     &COORD
C    3.6086169001694013E+00   -2.1441004159214110E+01   -9.7253308201511313E-01
C    5.0367214412411077E+00   -2.1438411082786697E+01   -7.9507032332665739E-01
C    5.7848375982665452E+00   -2.0197490118025403E+01   -7.6613865629260647E-01
C    7.1957540524508277E+00   -2.0205834086960515E+01   -5.8433028356650629E-01
C    3.6418933420389670E+00   -1.8981580238903458E+01   -9.7726518897988646E-01
C    5.0528187783548688E+00   -1.8945790866340605E+01   -8.3176487289536416E-01
C    5.7292557329373164E+00   -1.7684300897360949E+01   -7.3233024353887188E-01
C    7.1671673086402299E+00   -1.7741082324895086E+01   -7.1603706492530117E-01
C    3.5965501988834165E+00   -1.6496672684273406E+01   -7.9299806778677751E-01
C    4.9960436223623486E+00   -1.6468627606619901E+01   -7.4492797659923771E-01
C    5.7140961248228415E+00   -1.5232502027091169E+01   -7.5576382012671961E-01
C    7.1266970175637150E+00   -1.5252945518798001E+01   -7.9337457327578942E-01
C    3.6292234571396067E+00   -1.4056070307878196E+01   -5.7908172909200062E-01
C    5.0478099459144943E+00   -1.4029566593687898E+01   -7.8104515673318486E-01
C    5.7496937875091350E+00   -1.2802250507236977E+01   -8.8652694313950198E-01
C    7.1884516932734934E+00   -1.2832752700480968E+01   -8.6660889181804712E-01
C    3.5768079861131876E+00   -1.1550200881298416E+01   -7.6776861884294956E-01
C    4.9944525740306682E+00   -1.1532486294430321E+01   -9.1759100319693732E-01
C    5.7893274455893291E+00   -2.2661202498393735E+01   -7.0195492908604518E-01
C    7.2202682629486095E+00   -2.2631547533715736E+01   -4.6625615522726022E-01
C    7.9190519592404938E+00   -2.1399078555562866E+01   -3.9372639135663379E-01
C    9.3555829379810671E+00   -2.1386394999328765E+01   -2.5313055689583408E-01
C    1.0044276082469299E+01   -2.0201872037420276E+01   -3.0281584587344107E-01
C    1.1452305807288219E+01   -2.0198708933707916E+01   -3.0262563739187071E-01
C    7.8768016545515662E+00   -1.8949254682655777E+01   -5.9245622907623274E-01
C    9.3004549017301255E+00   -1.8968426682927252E+01   -4.6433637310418441E-01
C    9.9507387771301712E+00   -1.7734638473433385E+01   -5.7318532638705766E-01
C    1.1393799965650546E+01   -1.7762899652555504E+01   -6.3588583547209487E-01
C    7.8352760160999830E+00   -1.6478877996083462E+01   -7.1633141100306108E-01
C    9.2583258654878886E+00   -1.6466020110907518E+01   -7.5422604366856782E-01
C    9.9802926616498802E+00   -1.5249866642619025E+01   -7.6781667287138666E-01
C    1.1370251438834984E+01   -1.5294747418801409E+01   -7.6200512440399570E-01
C    7.8654311824738112E+00   -1.4029906315951246E+01   -9.0000568408401094E-01
C    9.2606731425542659E+00   -1.4035252871385524E+01   -7.7307871069821876E-01
C    1.0012236658588222E+01   -1.2794467739597602E+01   -7.3265518156063802E-01
C    1.1430239807150240E+01   -1.2822095531685326E+01   -7.1137257226540540E-01
C    7.8880994286364103E+00   -1.1574516292295417E+01   -9.1423510622228388E-01
C    9.2839275708213247E+00   -1.1600316858253471E+01   -8.5209607278725585E-01
C    1.0024365186636938E+01   -2.2685420543091659E+01   -2.1359407031247513E-01
C    1.1426048917606336E+01   -2.2657199453003429E+01   -1.0496307950429756E-01
C    1.2164061360143998E+01   -2.1420909699901802E+01   -1.7636877967109704E-01
C    1.3567406502670073E+01   -2.1439328138387509E+01   -3.2251186286611705E-01
C    1.4294763104355315E+01   -2.0261258457512504E+01   -5.0004159279927485E-01
C    1.5675585240958025E+01   -2.0188062957465988E+01   -6.5586727235156095E-01
C    1.2159282500672486E+01   -1.9013403136761152E+01   -5.2509415441590912E-01
C    1.3574020218715402E+01   -1.9053272936957416E+01   -5.7531065030128081E-01
C    1.4288817158054202E+01   -1.7751255053282595E+01   -6.4942565191049850E-01
C    1.5677133883013934E+01   -1.7756664176638409E+01   -7.8060509441503301E-01
C    1.2124040902125833E+01   -1.6500335480034828E+01   -7.2957123384600409E-01
C    1.3561318081851951E+01   -1.6512257316642025E+01   -7.4277539028703987E-01
C    1.4255952044092981E+01   -1.5261285778198099E+01   -8.7244656569877177E-01
C    1.5690564601268038E+01   -1.5284452155657528E+01   -1.0173444632944346E+00
C    1.2162737599536861E+01   -1.4063840745167472E+01   -7.5096688169633274E-01
C    1.3567054458992406E+01   -1.4052086073348196E+01   -8.2811148235839771E-01
C    1.4343899939782052E+01   -1.2806980826809170E+01   -9.4632868178127716E-01
C    1.5748198119301025E+01   -1.2876504798964580E+01   -9.4981953716040157E-01
C    1.2201770640104915E+01   -1.1579817879812312E+01   -8.9536482107274151E-01
C    1.3665307131450039E+01   -1.1599884223184976E+01   -9.5600088133683048E-01
C    1.4271346112999709E+01   -2.2710386504867738E+01   -4.6416633194663515E-01
C    1.5730924761716158E+01   -2.2710964820349602E+01   -5.8442202370636831E-01
C    3.5696300768340929E+00   -9.0937607306980066E+00   -8.7756292149400594E-01
C    5.0445688362378114E+00   -9.1245160549614592E+00   -8.8648732775251449E-01
C    5.7360674210855658E+00   -7.9050833983749955E+00   -8.4480144228799192E-01
C    7.1822570981360494E+00   -7.8776099329230904E+00   -7.0637362095023148E-01
C    3.6501322243289369E+00   -6.6133393300206977E+00   -1.1011738385852530E+00
C    5.0558925213819279E+00   -6.6333742718338904E+00   -9.0159469348359100E-01
C    5.7272777089748477E+00   -5.4051115648456758E+00   -7.0702473522690057E-01
C    7.1469259961028806E+00   -5.4275320928329274E+00   -5.0918863705032880E-01
C    3.5961831055320581E+00   -4.1673379568355111E+00   -9.2577683068404848E-01
C    5.0076277587907807E+00   -4.1829312548153075E+00   -6.9159977492955671E-01
C    5.6971046423530414E+00   -2.9769543878769809E+00   -4.8317827920704609E-01
C    7.1351512033753988E+00   -2.9459485232075964E+00   -2.7897291762750476E-01
C    3.5344721074478485E+00   -1.7070998532794002E+00   -7.5333609755820585E-01
C    4.9808133630282869E+00   -1.7132168704666688E+00   -5.7351399800904823E-01
C    5.6811947852726448E+00   -5.2403720730070358E-01   -5.3750650897600272E-01
C    7.1063258004419509E+00   -5.0523965022756501E-01   -2.6463271068813532E-01
C    3.6266814567595462E+00    7.6157345701363988E-01   -8.7651626382192205E-01
C    5.0256079319795788E+00    7.9863889458483028E-01   -7.1667833754975674E-01
C    5.7376050492765156E+00   -1.0343689077619482E+01   -9.6184986045347420E-01
C    7.1829420422147336E+00   -1.0331095961782394E+01   -8.9872279680893830E-01
C    7.8739783373894712E+00   -9.0963942798653026E+00   -7.3563465320765631E-01
C    9.2650601925494041E+00   -9.1060658843020761E+00   -7.0045630099336853E-01
C    9.9953329768485091E+00   -7.9098303743906424E+00   -4.5317836363254455E-01
C    1.1418966857452929E+01   -7.8990353012267942E+00   -5.6667392243926962E-01
C    7.9069304064711048E+00   -6.6587052300414706E+00   -5.3870260888621002E-01
C    9.3365841174846551E+00   -6.6594079911932429E+00   -3.9601381316235718E-01
C    1.0049549573412621E+01   -5.4431129551841018E+00   -3.3873570586115526E-01
C    1.1505151925197925E+01   -5.4162556858196016E+00   -3.2417912831779178E-01
C    7.8723212132688261E+00   -4.2225657811205668E+00   -3.2668089362370822E-01
C    9.3072574374730728E+00   -4.2361733743154115E+00   -3.1026031232947027E-01
C    1.0027329435328504E+01   -2.9771777622829370E+00   -1.7579639326128296E-01
C    1.1473930443139940E+01   -2.9519094760834723E+00   -8.1928679035453075E-02
C    7.8248684515829448E+00   -1.7206335863149211E+00   -1.3707737540031412E-01
C    9.2906942872130340E+00   -1.7538187757311721E+00   -1.5072980120140686E-01
C    9.9761720751785798E+00   -5.3098411690020908E-01   -1.9999157951343172E-01
C    1.1430330692908401E+01   -4.6952426249528861E-01   -2.1710222930066153E-01
C    7.8514411283028442E+00    7.4359674403314668E-01   -2.7074013277992548E-01
C    9.2596534243694677E+00    7.1545081058330240E-01   -2.0873494830987643E-01
C    9.9900745759477658E+00   -1.0348786814746731E+01   -7.6704955819476583E-01
C    1.1415663234462880E+01   -1.0368525023315595E+01   -8.2745235009015006E-01
C    1.2133191106354632E+01   -9.1305685748654373E+00   -7.9202144499864768E-01
C    1.3608907492647148E+01   -9.1539297683311496E+00   -7.3028179861049103E-01
C    1.4334363217721602E+01   -7.9476185025078445E+00   -5.7923226762395030E-01
C    1.5740277902808016E+01   -7.9097657265353352E+00   -7.9945746912142135E-01
C    1.2233017747528315E+01   -6.6773933714404938E+00   -5.2795317566703626E-01
C    1.3631474833195851E+01   -6.6851824519020120E+00   -5.2915358254808087E-01
C    1.4299478430480251E+01   -5.4313934634241576E+00   -4.3273639844208689E-01
C    1.5686727253141072E+01   -5.4068617515323609E+00   -5.9058174161072208E-01
C    1.2169249432977638E+01   -4.1731183062076802E+00   -2.8376877450066718E-01
C    1.3585637489456330E+01   -4.2313192056956863E+00   -4.0088017188407565E-01
C    1.4281273513190820E+01   -2.9977665337330603E+00   -4.1076443637115767E-01
C    1.5712673506956135E+01   -2.9310175041724742E+00   -5.6175038792201692E-01
C    1.2136748811782510E+01   -1.7212466435108340E+00   -1.1192610865760731E-01
C    1.3568817921896988E+01   -1.7790612871389011E+00   -2.5969111993606908E-01
C    1.4259557363399130E+01   -5.2290261423781326E-01   -2.9113688198752458E-01
C    1.5667834043568492E+01   -4.9320436664231793E-01   -5.1259655161638040E-01
C    1.2152134921223107E+01    7.4480912630924434E-01   -2.2251169584542507E-01
C    1.3523433454630021E+01    7.6220354503421084E-01   -3.0747685550593773E-01
C    1.4355051139674851E+01   -1.0361783716408201E+01   -8.8378185541746412E-01
C    1.5763237892877147E+01   -1.0345643548372948E+01   -9.1238056287298641E-01
C    1.6390641207240865E+01   -2.1423859641985828E+01   -5.8497627671491315E-01
C    1.7789617342028674E+01   -2.1465225859301452E+01   -7.1762441229593277E-01
C    1.8522992883882164E+01   -2.0241182042443988E+01   -8.1508065116031769E-01
C    1.9921583269142388E+01   -2.0244061199137207E+01   -9.4509424727525948E-01
C    1.6413549566291248E+01   -1.9014887667838419E+01   -7.0459528617068168E-01
C    1.7801141393327647E+01   -1.9009593224991853E+01   -7.4325054817072955E-01
C    1.8514214613039513E+01   -1.7803195695769300E+01   -9.1385880690552679E-01
C    1.9959058437389828E+01   -1.7792461066979222E+01   -8.7080915552322113E-01
C    1.6378573382526096E+01   -1.6536200537233174E+01   -8.8952066850803979E-01
C    1.7842485877595191E+01   -1.6583202489092233E+01   -9.5771507483531271E-01
C    1.8585631272220979E+01   -1.5364356076910207E+01   -9.5602017327470690E-01
C    1.9998877367479015E+01   -1.5327155953843516E+01   -8.7702686022683585E-01
C    1.6434602528264318E+01   -1.4111433852493034E+01   -1.0232303893434271E+00
C    1.7924832821717889E+01   -1.4074189473859498E+01   -1.0485581622299267E+00
C    1.8585794875405906E+01   -1.2865297370230834E+01   -8.8536329465173302E-01
C    2.0024401573899919E+01   -1.2878949721357031E+01   -8.3304285848788484E-01
C    1.6493484368686456E+01   -1.1615201216497233E+01   -8.8177875760346824E-01
C    1.7866662361295173E+01   -1.1629456118073477E+01   -8.7072510197117481E-01
C    1.8562455874254411E+01   -2.2661494530636595E+01   -6.4594626813917422E-01
C    2.0015677247288664E+01   -2.2660173169725827E+01   -7.2191775323410834E-01
C    2.0681365216042661E+01   -2.1464723798381890E+01   -8.6181097374708449E-01
C    2.2064930579526248E+01   -2.1426020457884174E+01   -7.4769965245260273E-01
C    2.2835625851067103E+01   -2.0216170583855511E+01   -7.9826152837191000E-01
C    2.4227178428729054E+01   -2.0145737098490304E+01   -9.0472478804018308E-01
C    2.0652458400726132E+01   -1.9012695373442511E+01   -9.6383546307418388E-01
C    2.2108971730101107E+01   -1.8988086682835540E+01   -8.2332472874426543E-01
C    2.2810646591248684E+01   -1.7736902292809550E+01   -8.7428798888922665E-01
C    2.4229317550220347E+01   -1.7702942738360775E+01   -8.1100498543658361E-01
C    2.0663177057080489E+01   -1.6573583963193254E+01   -8.0062707587528781E-01
C    2.2095074884694412E+01   -1.6522812607089321E+01   -7.6794882211260218E-01
C    2.2836458651308515E+01   -1.5279611289719121E+01   -7.1999472591022395E-01
C    2.4239929274711521E+01   -1.5231289616204444E+01   -5.9993861622203049E-01
C    2.0741311450523852E+01   -1.4086614810710861E+01   -8.7359751658578688E-01
C    2.2159631849672930E+01   -1.4084741716518067E+01   -7.4374134339438325E-01
C    2.2817850869057061E+01   -1.2838376202764611E+01   -6.3111896268048706E-01
C    2.4270497371719383E+01   -1.2816500851040876E+01   -6.2694723484873027E-01
C    2.0696622864110331E+01   -1.1642115077489775E+01   -8.0977924031447113E-01
C    2.2123893040498317E+01   -1.1567828236458006E+01   -7.3065890057209548E-01
C    2.2809943619546605E+01   -2.2623741756215630E+01   -8.6132169623536881E-01
C    2.4215095543926086E+01   -2.2625373914446364E+01   -1.0063663426335072E+00
C    2.4939153741591710E+01   -2.1423935354168879E+01   -9.6039979364429540E-01
C    2.6360845904269830E+01   -2.1433108777655267E+01   -9.7412701577766281E-01
C    2.7102389139351271E+01   -2.0178890277243323E+01   -9.7468012568167683E-01
C    2.8527508737286723E+01   -2.0184803799151602E+01   -9.7699958270749665E-01
C    2.4937189616407188E+01   -1.8945803211939804E+01   -8.9170847402130149E-01
C    2.6336318229374054E+01   -1.8958161572188750E+01   -9.0912363708739230E-01
C    2.7093237163685398E+01   -1.7703289062164490E+01   -9.2952756696855054E-01
C    2.8501365557662311E+01   -1.7722629493566913E+01   -9.4261893293830912E-01
C    2.4926126303373270E+01   -1.6508810982352980E+01   -6.6733113333974570E-01
C    2.6377857729608873E+01   -1.6528818022491034E+01   -7.9108367538296254E-01
C    2.7043955991387378E+01   -1.5258592127039160E+01   -7.4959848212625457E-01
C    2.8490791475232321E+01   -1.5245481241546612E+01   -6.7327683903194191E-01
C    2.4947682445351994E+01   -1.4043626279332742E+01   -6.2564012656382650E-01
C    2.6378926822943843E+01   -1.4030003777426778E+01   -6.8610132373010890E-01
C    2.7127800837804617E+01   -1.2810431619509153E+01   -6.8222386438503757E-01
C    2.8546496576565470E+01   -1.2794360807307051E+01   -6.7133922745280494E-01
C    2.5010622346199966E+01   -1.1561704257999386E+01   -5.8173544395617494E-01
C    2.6402794412267731E+01   -1.1534195424403793E+01   -6.1383074608273991E-01
C    2.7110578220062756E+01   -2.2633216722919286E+01   -1.0026238902766571E+00
C    2.8550283620432253E+01   -2.2657282360269729E+01   -1.0316746253502316E+00
C    1.6445531404485653E+01   -9.1182939449066520E+00   -9.1276999397033243E-01
C    1.7843903867334024E+01   -9.1612546314506567E+00   -1.0602469643776464E+00
C    1.8487296613748285E+01   -7.8905397617448614E+00   -1.0134298591335129E+00
C    1.9975287091852806E+01   -7.9099180948401706E+00   -1.0553786551490409E+00
C    1.6403244913132554E+01   -6.6442771108986252E+00   -7.6694525694350513E-01
C    1.7821853805607169E+01   -6.6746195576960403E+00   -1.0001609077003510E+00
C    1.8559753865138717E+01   -5.4418004949030871E+00   -9.4274516101157524E-01
C    1.9963870281284525E+01   -5.3899335504645602E+00   -1.0272664477673876E+00
C    1.6437110894025512E+01   -4.1779033731782071E+00   -6.4620117512694786E-01
C    1.7874923657342510E+01   -4.2298797028706723E+00   -7.9068239586555800E-01
C    1.8566693757183192E+01   -2.9478098505658270E+00   -7.7980765829425558E-01
C    1.9975089892345800E+01   -2.9454092051089278E+00   -8.4356131334760209E-01
C    1.6429041332419310E+01   -1.7092510101062506E+00   -5.8561321076923467E-01
C    1.7865799787409010E+01   -1.7221618076283691E+00   -5.8916397188758296E-01
C    1.8537025129595420E+01   -4.7105489754376029E-01   -6.9630544871620792E-01
C    1.9985082348854835E+01   -5.0426469031370968E-01   -8.3498209847996774E-01
C    1.6416384699156843E+01    7.0142994755047539E-01   -5.6181037892434393E-01
C    1.7843915781992994E+01    7.4451715397416596E-01   -6.8326702253110105E-01
C    1.8603250976961668E+01   -1.0392851120076351E+01   -1.0237306382830527E+00
C    2.0028583206556352E+01   -1.0362029016643049E+01   -1.0029752437314496E+00
C    2.0682410617190047E+01   -9.0975637396175184E+00   -9.3881029383831915E-01
C    2.2109854942505166E+01   -9.1204602738305827E+00   -7.6728660305189533E-01
C    2.2803627282913592E+01   -7.8942937927065167E+00   -9.6087148063981942E-01
C    2.4203429227983133E+01   -7.9067390438251985E+00   -8.4892534754410243E-01
C    2.0656672529967221E+01   -6.6875314906718009E+00   -1.0823871656827115E+00
C    2.2078080993533160E+01   -6.6914006087072320E+00   -1.0502632601358555E+00
C    2.2765280742073756E+01   -5.3998600023836838E+00   -1.0177020060132997E+00
C    2.4181093375955331E+01   -5.4474339758778401E+00   -9.7874957414390051E-01
C    2.0654132077187629E+01   -4.1471975259233060E+00   -9.1751082082016999E-01
C    2.2071165498154748E+01   -4.1798047533396900E+00   -9.2532827172674259E-01
C    2.2842591575484576E+01   -2.9436614793956131E+00   -9.0408452042150877E-01
C    2.4255682976668641E+01   -2.9957168041051356E+00   -8.8203215572080507E-01
C    2.0720586763656534E+01   -1.7149557367953077E+00   -8.5467861613790852E-01
C    2.2140592662644362E+01   -1.7253656192066713E+00   -9.0230861280090158E-01
C    2.2874486345528506E+01   -4.8514787921470526E-01   -9.4133379408043383E-01
C    2.4260848006703092E+01   -4.7565380684100222E-01   -8.7076997071974149E-01
C    2.0738704812758559E+01    7.3244056775703703E-01   -7.1295539549403175E-01
C    2.2146302363939533E+01    7.5993975913091472E-01   -8.9648110733144504E-01
C    2.2833552608776944E+01   -1.0330165180725867E+01   -6.7137445262034690E-01
C    2.4240861568452921E+01   -1.0331413522583771E+01   -6.2779377896014188E-01
C    2.4907506335455835E+01   -9.1210601730807355E+00   -7.4179610406582741E-01
C    2.6392568602328605E+01   -9.0862602228121006E+00   -6.6536641186939416E-01
C    2.7050800628900621E+01   -7.8505132366386601E+00   -7.9140745612193331E-01
C    2.8528634516488470E+01   -7.8469918598160202E+00   -9.3907856646818555E-01
C    2.4921456214551441E+01   -6.6740725404977423E+00   -9.2909582636803434E-01
C    2.6361530747700026E+01   -6.6491828895908993E+00   -8.9998119753215311E-01
C    2.7090860937460125E+01   -5.4079973957283904E+00   -9.7697289401203125E-01
C    2.8518752710698795E+01   -5.3771928362153734E+00   -1.0994976946323254E+00
C    2.4925558563653752E+01   -4.2002355082391905E+00   -9.3664978361290874E-01
C    2.6333546874994539E+01   -4.2191296084662842E+00   -9.6932436632943730E-01
C    2.7045955033830754E+01   -2.9535324771145923E+00   -1.0230429371379592E+00
C    2.8478608027277311E+01   -2.9191587211636052E+00   -9.1076021906328941E-01
C    2.4996775763814924E+01   -1.7355285041884208E+00   -8.4501429986199905E-01
C    2.6373415329189683E+01   -1.6791676422694457E+00   -9.3390247388746184E-01
C    2.7057909669575398E+01   -4.2159299585507970E-01   -9.0228145606599885E-01
C    2.8478446230170032E+01   -4.4783884608825369E-01   -8.4044196085275902E-01
C    2.4923642343511361E+01    7.7632622950034591E-01   -9.9001731154458472E-01
C    2.6360452749040832E+01    7.6964656344374338E-01   -9.3602359066080487E-01
C    2.7101677182393672E+01   -1.0321834494846307E+01   -6.4132499751059646E-01
C    2.8516447895037139E+01   -1.0307147848897856E+01   -6.3020461559292829E-01
O    4.8601171982468185E+02    2.0779985523461306E+02    5.8471283950546482E+00
H    4.8577593822712987E+02    2.0691327336628521E+02    5.5117489877260413E+00
H    4.8577547703775502E+02    2.0785324320819919E+02    6.8232285364153142E+00
O    4.1417752971688429E+02    2.3202664589021555E+02    2.9079969060792301E+00
H    4.1451054861071918E+02    2.3108764119055371E+02    2.5303983210911607E+00
H    4.1350378079526166E+02    2.3235835809425896E+02    2.3135325820380088E+00
O    4.0435556347411904E+02    3.2618932300382488E+02    6.7533908219859429E+00
H    4.0343335513207381E+02    3.2581198916730960E+02    6.6489582273758581E+00
H    4.0462529662915648E+02    3.2701892165670444E+02    6.3050954742844150E+00
O    4.9199249257512798E+02    2.3548598079379954E+02    1.4303617995408761E+01
H    4.9242492042277382E+02    2.3625136245109670E+02    1.3854342138484986E+01
H    4.9196541410612338E+02    2.3468938675864024E+02    1.3614099154919554E+01
O    4.1509588029244088E+02    3.6829872254405228E+02    4.0401279344161969E+00
H    4.1409800743082241E+02    3.6832741257968337E+02    4.0330669064245628E+00
H    4.1542049959296696E+02    3.6911615212147160E+02    3.5453848075146883E+00
O    4.2582955358207630E+02    2.5780939521240623E+02    2.9459503020705795E+00
H    4.2496491812593388E+02    2.5732901357908986E+02    2.8749576557614276E+00
H    4.2591036053940724E+02    2.5814111044643602E+02    3.8675054210011472E+00
O    4.4790259816781787E+02    2.9859115617497866E+02    1.1303580779501255E+01
H    4.4761595503886400E+02    2.9924689634006387E+02    1.0604829587175248E+01
H    4.4749700090502989E+02    2.9891329113061886E+02    1.2147907981509375E+01
O    3.5545146022877867E+02    1.9903026342240324E+02    7.2726523385061315E+00
H    3.5545172102581586E+02    1.9835595299242601E+02    6.5689590886067091E+00
H    3.5455383652243279E+02    1.9897672345038981E+02    7.7184765760343730E+00
O    3.4952958170450756E+02    3.0670986967529575E+02    1.2844305096255265E+01
H    3.4908251609887014E+02    3.0686035477696493E+02    1.1981856992014846E+01
H    3.5001251421509630E+02    3.0583403687427943E+02    1.2664405488477884E+01
O    5.6993475322494419E+02    3.4174850851941960E+02    2.6772860714634077E+00
H    5.7080157055782604E+02    3.4208313029968878E+02    2.3311751585680116E+00
H    5.6952549856439430E+02    3.4257680154473115E+02    3.1772676260203840E+00
O    3.8595524474285071E+02    3.4451565714566789E+02    9.0591071361133846E+00
H    3.8680985974155004E+02    3.4424354945276872E+02    9.4665948353808123E+00
H    3.8532727057199770E+02    3.4502068718650906E+02    9.6776609290815152E+00
O    3.2536734914044013E+02    3.1795399394997787E+02    1.4803811681082490E+01
H    3.2608624737984309E+02    3.1852079232434153E+02    1.4422263297587417E+01
H    3.2558246360778088E+02    3.1708166565916468E+02    1.4387180631332509E+01
O    3.5616188465146723E+02    1.9597217860287020E+02    3.2654432155706976E+00
H    3.5569527619903045E+02    1.9511498629439751E+02    2.9991041363398172E+00
H    3.5713448534472008E+02    1.9605120892537030E+02    3.1860378899227930E+00
O    4.6356163620207388E+02    2.0894412944868657E+02    5.2152840012240116E+00
H    4.6276046343986479E+02    2.0876371979152361E+02    4.7565650245169930E+00
H    4.6375680438033959E+02    2.0984862204828499E+02    4.7721816492325910E+00
O    3.4401804073333466E+02    3.9803532861535132E+02    5.7977739052822397E+00
H    3.4397472659772791E+02    3.9755046948965884E+02    4.9835299809895792E+00
H    3.4492335694908689E+02    3.9793678410177267E+02    6.1632246151795709E+00
O    3.9724005258284046E+02    3.2698369155948643E+02    1.5353191856766511E+01
H    3.9704529319654335E+02    3.2646893684486793E+02    1.6139873024477311E+01
H    3.9751724845231666E+02    3.2784651574831798E+02    1.5674066717732153E+01
O    4.7757338261408177E+02    3.3968928491412805E+02    8.9608956676067972E+00
H    4.7826404138044484E+02    3.3900550382296836E+02    9.0339075513975562E+00
H    4.7789360613138490E+02    3.4045802536624598E+02    8.4109730463164212E+00
O    4.5843224781221880E+02    2.8190474467231826E+02    1.8460919945315119E+01
H    4.5906134137753395E+02    2.8110855840089755E+02    1.8713704209811802E+01
H    4.5771522621447417E+02    2.8208597813331988E+02    1.9065103021170831E+01
O    4.0519210609328638E+02    2.5566076675640610E+02    1.1145138759683737E+01
H    4.0539691292186575E+02    2.5543046488870303E+02    1.0196544288440707E+01