 # Version information for this restart file 
 # current date 2019-01-28 05:13:06.663
 # current working dir /scratch/snx3000/gtocci/gtocci/MEMBRANES/AIMD_US_IONS_GRA/potassium/aimd_us_pot/us_26
 # Program compiled at                             Thu Oct 11 21:49:41 CEST 2018
 # Program compiled on                                                  daint104
 # Program compiled for                                   CRAY_XC50-gfortran_gpu
 # Source code revision number                                     git:be74c20a5
 &GLOBAL
   PRINT_LEVEL  LOW
   PROJECT_NAME GRAS
   RUN_TYPE  MD
   WALLTIME 10200
 &END GLOBAL
 &MOTION
   &MD
     ENSEMBLE  NVT
     STEPS  100000
     TIMESTEP     9.9999999999999989E-01
     STEP_START_VAL  40681
     TIME_START_VAL     4.0680999999990920E+04
     ECONS_START_VAL    -8.3207871046659766E+03
     TEMPERATURE     3.0000000000000000E+02
     TEMP_KIND  T
     &BAROSTAT
       PRESSURE     1.0000000000000000E+00
       TIMECON     9.9999999999999986E+01
       VIRIAL  Z
     &END BAROSTAT
     &THERMOSTAT
       TYPE  NOSE
       REGION  GLOBAL
       &NOSE
         LENGTH  4
         TIMECON     9.9999999999999986E+01
         MTS  2
         &COORD
               1.1545094425273887E-01   -5.0507979412024406E+00    3.1710731866399069E+00    1.3418018965972431E+01
         &END COORD
         &VELOCITY
              -2.2064194988412587E-06    1.9626250435271137E-04    3.9943054553454841E-04    2.5358178676172262E-04
         &END VELOCITY
         &MASS
               7.0145132684705392E+07    1.6237299232570693E+04    1.6237299232570693E+04    1.6237299232570693E+04
         &END MASS
         &FORCE
               6.8756679483521852E-10   -3.7479013989080010E-08   -1.9991043235307021E-08    1.0103474685592188E-07
         &END FORCE
       &END NOSE
     &END THERMOSTAT
     &AVERAGES  T
       &RESTART_AVERAGES
         ITIMES_START  1
         AVECPU     4.6380858646038419E+01
         AVEHUGONIOT     0.0000000000000000E+00
         AVETEMP_BARO     0.0000000000000000E+00
         AVEPOT    -8.3232605252859848E+03
         AVEKIN     2.0494644883983075E+00
         AVETEMP     2.9961524408034887E+02
         AVEKIN_QM     0.0000000000000000E+00
         AVETEMP_QM     0.0000000000000000E+00
         AVEVOL     2.1331414786628089E+05
         AVECELL_A     4.8437460238125603E+01
         AVECELL_B     4.6608961231944583E+01
         AVECELL_C     9.4486306644279466E+01
         AVEALPHA     9.0000000000000057E+01
         AVEBETA     9.0000000000000057E+01
         AVEGAMMA     9.0000000000000057E+01
         AVE_ECONS    -1.7298297948453452E+00
         AVE_PRESS     0.0000000000000000E+00
         AVE_PXX     0.0000000000000000E+00
       &END RESTART_AVERAGES
     &END AVERAGES
     &PRINT
       &TEMP_KIND  SILENT
       &END TEMP_KIND
     &END PRINT
   &END MD
   &FREE_ENERGY
     &METADYN
       MIN_DISP    -1.0000000000000000E+00
       OLD_HILL_NUMBER  0
       OLD_HILL_STEP  0
       DO_HILLS  F
       STEP_START_VAL  40681
       NHILLS_START_VAL  0
       &METAVAR
         SCALE     1.0000000000000000E+00
         COLVAR  1
       &END METAVAR
       &PRINT
         &COLVAR  SILENT
           COMMON_ITERATION_LEVELS  3
           &EACH
             MD  1
           &END EACH
         &END COLVAR
       &END PRINT
     &END METADYN
   &END FREE_ENERGY
   &CONSTRAINT
     &COLLECTIVE
       COLVAR  1
       INTERMOLECULAR  T
       &RESTRAINT
         K     4.4625385281452931E-04
       &END RESTRAINT
     &END COLLECTIVE
     &COLVAR_RESTART
           2.4566439727513362E+01
     &END COLVAR_RESTART
   &END CONSTRAINT
   &PRINT
     &TRAJECTORY  SILENT
       &EACH
         MD  1
       &END EACH
     &END TRAJECTORY
     &VELOCITIES  SILENT
       &EACH
         MD  1
       &END EACH
     &END VELOCITIES
     &FORCES  SILENT
       UNIT eV*angstrom^-1
       &EACH
         MD  1
       &END EACH
     &END FORCES
     &RESTART  SILENT
       &EACH
         MD  1
       &END EACH
     &END RESTART
     &RESTART_HISTORY  SILENT
       &EACH
         MD  100
       &END EACH
     &END RESTART_HISTORY
   &END PRINT
 &END MOTION
 &FORCE_EVAL
   METHOD  QS
   &DFT
     BASIS_SET_FILE_NAME /users/gtocci/scratch_daint_3000/data_cp2k//BASIS_MOLOPT
     POTENTIAL_FILE_NAME /users/gtocci/scratch_daint_3000/data_cp2k//GTH_POTENTIALS
     WFN_RESTART_FILE_NAME ./GRAS-RESTART.wfn
     CHARGE  1
     &SCF
       MAX_SCF  10
       EPS_SCF     9.9999999999999995E-07
       SCF_GUESS  RESTART
       &OT  T
         MINIMIZER  DIIS
         PRECONDITIONER  FULL_KINETIC
       &END OT
       &OUTER_SCF  T
         EPS_SCF     9.9999999999999995E-07
         MAX_SCF  30
       &END OUTER_SCF
       &PRINT
         &RESTART  SILENT
           ADD_LAST  NUMERIC
           &EACH
             QS_SCF  50
           &END EACH
         &END RESTART
       &END PRINT
     &END SCF
     &QS
       MAP_CONSISTENT  T
       EXTRAPOLATION  ASPC
       EXTRAPOLATION_ORDER  4
     &END QS
     &MGRID
       NGRIDS  5
       CUTOFF     4.6000000000000000E+02
     &END MGRID
     &XC
       DENSITY_CUTOFF     1.0000000000000000E-10
       GRADIENT_CUTOFF     1.0000000000000000E-10
       TAU_CUTOFF     1.0000000000000000E-10
       &XC_GRID
         XC_DERIV  SPLINE2_SMOOTH
       &END XC_GRID
       &XC_FUNCTIONAL  NO_SHORTCUT
         &LIBXC  T
           FUNCTIONAL XC_GGA_X_OPTB88_VDW
         &END LIBXC
         &VWN  T
         &END VWN
       &END XC_FUNCTIONAL
       &VDW_POTENTIAL
         POTENTIAL_TYPE  NON_LOCAL
         &NON_LOCAL
           TYPE  DRSLL
           VERBOSE_OUTPUT  T
           KERNEL_FILE_NAME /users/gtocci/scratch_daint_3000/data_cp2k//vdW_kernel_table.dat
         &END NON_LOCAL
       &END VDW_POTENTIAL
     &END XC
     &REAL_TIME_PROPAGATION
       INITIAL_WFN  SCF_WFN
     &END REAL_TIME_PROPAGATION
     &PRINT
       &MULLIKEN  SILENT
         FILENAME =GRAS.mulliken
       &END MULLIKEN
     &END PRINT
   &END DFT
   &SUBSYS
     &CELL
       A     2.5632000000000001E+01    0.0000000000000000E+00    0.0000000000000000E+00
       B     0.0000000000000000E+00    2.4664400000000022E+01    0.0000000000000000E+00
       C     0.0000000000000000E+00    0.0000000000000000E+00    5.0000000000000028E+01
       MULTIPLE_UNIT_CELL  1 1 1
     &END CELL
     &COORD
C    4.6577592385237221E+00    8.3936290348102300E+00    1.3885359905866379E+00
C    6.1033870555107841E+00    8.4431899206233734E+00    1.4581786893771957E+00
C    6.7898863033987755E+00    9.6912512355465150E+00    1.5655207683080756E+00
C    8.2303485729924120E+00    9.6794594655693107E+00    1.5904580385250224E+00
C    4.6475140464894817E+00    1.0842577678023080E+01    1.5655160176894352E+00
C    6.0627052680583944E+00    1.0888517918408004E+01    1.6117965489887895E+00
C    6.8189180807070473E+00    1.2117816946091461E+01    1.6600533969843663E+00
C    8.2344855049074770E+00    1.2127906305254580E+01    1.7088844890338948E+00
C    4.6354320717135327E+00    1.3351935561807080E+01    1.6700587393995354E+00
C    6.0592661015880518E+00    1.3335595151036621E+01    1.6691657651315412E+00
C    6.7754713177485995E+00    1.4559199199238455E+01    1.7575108018563048E+00
C    8.1933597164773602E+00    1.4544956148709669E+01    1.7130635119234530E+00
C    4.6361685742066863E+00    1.5798996366133114E+01    1.9176589212686692E+00
C    6.0804183549685842E+00    1.5780206273467725E+01    1.8689328076286136E+00
C    6.8124531149260772E+00    1.7000667886513625E+01    1.9692980869394410E+00
C    8.2254406193727494E+00    1.7030828460331694E+01    2.0223307982427294E+00
C    4.6644304708267983E+00    1.8303812033638142E+01    1.9545540073542538E+00
C    6.0799863418988576E+00    1.8247649930570688E+01    2.0001840150227177E+00
C    6.8661920094778717E+00    7.2092345868603864E+00    1.4068022489757555E+00
C    8.2696516343276425E+00    7.1969760931426627E+00    1.4470226032711528E+00
C    8.9579988805669135E+00    8.4225604599725923E+00    1.5150228269874442E+00
C    1.0410263805852901E+01    8.3625710675233620E+00    1.3596932863560256E+00
C    1.1090185841237831E+01    9.5749422208580111E+00    1.4015969140361266E+00
C    1.2527518418353441E+01    9.6148734674191321E+00    1.3333056214142207E+00
C    8.9404863492844022E+00    1.0886245286386076E+01    1.6332762573972612E+00
C    1.0370295190728205E+01    1.0834638954125854E+01    1.5724088580763864E+00
C    1.1100758512342724E+01    1.2092466296024741E+01    1.6292262600083631E+00
C    1.2542447466002967E+01    1.2088201385594195E+01    1.7052812377619369E+00
C    8.9500906479805824E+00    1.3341765127861784E+01    1.6578788901510479E+00
C    1.0388179851111778E+01    1.3380840349799968E+01    1.7010388076579841E+00
C    1.1107053117126927E+01    1.4601618286928710E+01    1.7714436576067074E+00
C    1.2540294446586387E+01    1.4586528828841770E+01    1.8541759513511760E+00
C    8.9322733177260254E+00    1.5780505635109963E+01    1.8574892935675038E+00
C    1.0364938640832836E+01    1.5824732715272587E+01    1.8384152833410381E+00
C    1.1082482368276592E+01    1.7082629222714456E+01    1.8670081037713269E+00
C    1.2515607437742114E+01    1.7080269335829556E+01    1.8020452327198497E+00
C    8.9206985054522576E+00    1.8278479115624155E+01    2.0021071743786960E+00
C    1.0360735122330945E+01    1.8265195777083552E+01    1.9370479713930739E+00
C    1.1130385240910805E+01    7.1639084541495128E+00    1.3117112591239928E+00
C    1.2504563269078771E+01    7.1469291124686638E+00    1.3646776069615365E+00
C    1.3215786804541791E+01    8.3755220727022088E+00    1.4035313893383157E+00
C    1.4606985776295618E+01    8.4012177663627163E+00    1.6695388635368222E+00
C    1.5344004749555017E+01    9.6389312084127141E+00    1.7303747728823062E+00
C    1.6783609495466788E+01    9.6568438186617342E+00    1.7842340860698858E+00
C    1.3241247280990859E+01    1.0877486812705094E+01    1.5466865706756063E+00
C    1.4663245949821709E+01    1.0867869454773656E+01    1.7104572385334764E+00
C    1.5387935636263911E+01    1.2088828465729092E+01    1.7788727592909719E+00
C    1.6789843198160359E+01    1.2084576164712358E+01    1.9324854783212055E+00
C    1.3260312738329016E+01    1.3336591939030818E+01    1.7938785199621896E+00
C    1.4647261760411258E+01    1.3320973621001382E+01    1.6969300823017424E+00
C    1.5348733217716036E+01    1.4564205713790610E+01    1.7363081434787695E+00
C    1.6781925114876454E+01    1.4557002898681132E+01    1.8236994438721239E+00
C    1.3211262855140617E+01    1.5818067271108822E+01    1.8481595804197224E+00
C    1.4655388717001133E+01    1.5818458630252641E+01    1.7461761913058587E+00
C    1.5350603920034557E+01    1.7043610760482366E+01    1.8086817924444629E+00
C    1.6761109424271790E+01    1.7045346761791183E+01    1.8430256537148144E+00
C    1.3181489886485728E+01    1.8304014281445120E+01    1.7651214269837394E+00
C    1.4622830826565982E+01    1.8248500806191540E+01    1.7973023244034931E+00
C    1.5325849790638783E+01    7.1813745695969713E+00    1.7523932941936555E+00
C    1.6762376871769494E+01    7.1947906215380879E+00    1.7823401389849445E+00
C    4.6494404825292719E+00    2.0754885402283335E+01    1.8964317112050586E+00
C    6.0490180472101738E+00    2.0701570959553031E+01    1.8467306795394494E+00
C    6.7471885486897509E+00    2.1968578498022261E+01    1.7441999288374828E+00
C    8.1717990469236206E+00    2.1987090729120013E+01    1.8455972390356619E+00
C    4.6556799356125351E+00    2.3205427179704813E+01    1.7598062317734060E+00
C    6.0617684568206327E+00    2.3201069159331759E+01    1.7389098505472484E+00
C    6.8113277793425855E+00    2.4461960750538090E+01    1.6515489798636469E+00
C    8.2222951879130903E+00    2.4469730549546618E+01    1.7240800768200744E+00
C    4.6525991333367100E+00    2.5688230032751751E+01    1.6993078016851286E+00
C    6.0956052746454006E+00    2.5703130699786914E+01    1.6063795833644157E+00
C    6.8382920755350014E+00    2.6931112470628314E+01    1.4097819339398758E+00
C    8.2458427851728491E+00    2.6929993742358334E+01    1.4463792877775672E+00
C    4.7047505268287013E+00    2.8149820600391831E+01    1.4414988023015356E+00
C    6.1408833234978841E+00    2.8126465460338704E+01    1.4196217621814564E+00
C    6.8157943553657292E+00    2.9386789387373707E+01    1.4659640481189218E+00
C    8.2265391926067704E+00    2.9396415778998609E+01    1.3922472601040585E+00
C    4.7116073711728914E+00    3.0601922435703539E+01    1.5410548725529389E+00
C    6.1474965460286990E+00    3.0654770556627085E+01    1.5192117635197602E+00
C    6.7609983981796358E+00    1.9465949566763758E+01    1.9953519497198644E+00
C    8.2088924120929612E+00    1.9519816549337548E+01    1.9444336258567270E+00
C    8.8932432894077760E+00    2.0762365640617524E+01    1.9198347407494580E+00
C    1.0288536942648063E+01    2.0771274431009786E+01    1.9384354370134489E+00
C    1.1039059240543393E+01    2.2012196078102420E+01    1.8685990978946310E+00
C    1.2471082702233055E+01    2.2013652012505439E+01    1.6927323507171619E+00
C    8.8934327526458343E+00    2.3190656905160957E+01    1.8347208857024448E+00
C    1.0328487705724426E+01    2.3219048939368292E+01    1.8699113303085841E+00
C    1.1050471728085739E+01    2.4472499202916442E+01    1.7902320954547235E+00
C    1.2529018341396748E+01    2.4450233442655303E+01    1.5687820799548298E+00
C    8.9581552175392396E+00    2.5704641164218579E+01    1.6215315171768299E+00
C    1.0363208738200210E+01    2.5739009761129186E+01    1.7289871691290559E+00
C    1.1086207138391460E+01    2.6957042287796487E+01    1.6197445200205511E+00
C    1.2501817344554238E+01    2.6930782621183994E+01    1.5836788388000664E+00
C    8.9419025504950049E+00    2.8190088636791575E+01    1.3959234453271714E+00
C    1.0360885311584255E+01    2.8194815035399017E+01    1.5067260072293265E+00
C    1.1094896258637437E+01    2.9368127440595590E+01    1.3969530320663988E+00
C    1.2539561551775680E+01    2.9365703763524529E+01    1.5044948801128077E+00
C    8.9878454229583422E+00    3.0605284400352410E+01    1.3657053410126676E+00
C    1.0381182268288585E+01    3.0595621654308136E+01    1.3861782636264570E+00
C    1.1005309087918924E+01    1.9557547888979279E+01    1.7998492433290476E+00
C    1.2480186267196732E+01    1.9563218146044782E+01    1.7378421925120997E+00
C    1.3189274620728803E+01    2.0786651883668831E+01    1.7066889024548904E+00
C    1.4629824345380975E+01    2.0771497162316159E+01    1.6688584976171781E+00
C    1.5354435986167498E+01    2.2013260581666302E+01    1.6712926842241000E+00
C    1.6768492431223148E+01    2.1981176543149843E+01    1.7231969095559092E+00
C    1.3216858874336003E+01    2.3245829635865547E+01    1.5579986346721313E+00
C    1.4650080074357923E+01    2.3225118425288471E+01    1.4991548407873652E+00
C    1.5352643138134878E+01    2.4466345417447272E+01    1.5803312868815915E+00
C    1.6765676454561859E+01    2.4460420810365882E+01    1.6355080973256788E+00
C    1.3210202076377728E+01    2.5682669908240555E+01    1.5780145040276532E+00
C    1.4644789799651624E+01    2.5699700272916978E+01    1.5894524729100041E+00
C    1.5352802255790264E+01    2.6922416551400733E+01    1.6092439223285655E+00
C    1.6786097707913743E+01    2.6917426125123363E+01    1.5864815709975395E+00
C    1.3250328810692904E+01    2.8131026500677578E+01    1.5649545850551665E+00
C    1.4636881766770584E+01    2.8137008263413261E+01    1.5608415326158165E+00
C    1.5324240353065857E+01    2.9343422870170894E+01    1.6625296469758615E+00
C    1.6794761724957585E+01    2.9374782989422041E+01    1.5768623309938261E+00
C    1.3229996497028999E+01    3.0613012302493981E+01    1.5148008882114614E+00
C    1.4628710516986196E+01    3.0604443294955306E+01    1.6710032371027423E+00
C    1.5348873636194792E+01    1.9528788708619867E+01    1.7213630557917354E+00
C    1.6751350754382980E+01    1.9543243888665280E+01    1.7721241416361326E+00
C    1.7498682771836442E+01    8.4433756817040102E+00    1.7777769506236487E+00
C    1.8911481743451166E+01    8.4209375060763687E+00    1.8009060852851886E+00
C    1.9640436922291624E+01    9.6255284134849219E+00    1.8074470587723039E+00
C    2.1056178590073706E+01    9.6259861015605317E+00    1.7592902219178794E+00
C    1.7509913095494827E+01    1.0842413977784872E+01    1.9108376835218892E+00
C    1.8944800118052612E+01    1.0865800942144402E+01    1.8748967214027410E+00
C    1.9642681962992828E+01    1.2103781880104139E+01    1.9399941554437803E+00
C    2.1035808447139821E+01    1.2145317488998954E+01    1.9224003362481810E+00
C    1.7508549476470140E+01    1.3329488644159847E+01    1.8505234851542693E+00
C    1.8938982844154726E+01    1.3324873598463741E+01    1.8920453239568262E+00
C    1.9629640093465675E+01    1.4572786595241437E+01    1.9387803391457432E+00
C    2.1022467961686306E+01    1.4608419217604393E+01    1.9384512278037422E+00
C    1.7491671564623477E+01    1.5759148300854646E+01    1.8298906846013898E+00
C    1.8901402545910944E+01    1.5802486224794817E+01    1.9214531412738201E+00
C    1.9589771760423758E+01    1.7065326054993349E+01    1.8985320999279449E+00
C    2.1014788947319410E+01    1.7081219025751327E+01    1.9002083993198888E+00
C    1.7490549512046400E+01    1.8272724994508092E+01    1.8338474714154740E+00
C    1.8922174392466413E+01    1.8279510933215157E+01    1.8403803264749083E+00
C    1.9614894736867285E+01    7.1939150414105262E+00    1.8489082484186417E+00
C    2.1032417520770323E+01    7.1900581612201178E+00    1.8661794290875096E+00
C    2.1764786915289747E+01    8.4054987054634438E+00    1.7595140338601509E+00
C    2.3172382926439713E+01    8.3908437894026697E+00    1.6211120909503527E+00
C    2.3861010555659902E+01    9.6331542928770517E+00    1.6357097820945974E+00
C    2.5334001271062615E+01    9.6184184752658162E+00    1.6847644184055459E+00
C    2.1750282829745309E+01    1.0911521103551937E+01    1.7342913785177483E+00
C    2.3186798481591374E+01    1.0894694462215417E+01    1.6270099478184192E+00
C    2.3882815651811637E+01    1.2122168100342634E+01    1.6761045776813230E+00
C    2.5323269303902151E+01    1.2099201915579698E+01    1.7457744065276684E+00
C    2.1723543180893628E+01    1.3381832743965578E+01    1.9419161106847236E+00
C    2.3162558376934356E+01    1.3354306555788536E+01    1.8293786856244025E+00
C    2.3873134509410843E+01    1.4584432940692007E+01    1.8932719244908109E+00
C    2.5302580484277517E+01    1.4552684176320152E+01    1.8949888307584108E+00
C    2.1752965794030494E+01    1.5839770608837302E+01    1.9264989157135954E+00
C    2.3152337773315391E+01    1.5821810574695386E+01    1.9226051935982333E+00
C    2.3828942266014010E+01    1.7053159711744730E+01    1.9421303873628291E+00
C    2.5265988710156403E+01    1.7032275289168368E+01    1.9286368137697383E+00
C    2.1715551133606620E+01    1.8312647959318269E+01    1.8149571249429579E+00
C    2.3127883223715404E+01    1.8299014490045248E+01    1.8837234259273432E+00
C    2.3880310426187773E+01    7.1824315935960366E+00    1.6253446749617981E+00
C    2.5292147314722687E+01    7.2070224496648372E+00    1.6207842875464769E+00
C    2.6035933849708425E+01    8.4104030319807013E+00    1.6098366547837504E+00
C    2.7451773832008620E+01    8.3983895245433189E+00    1.4939888063514932E+00
C    2.8148349176322725E+01    9.6566590693236467E+00    1.5387104584075817E+00
C    2.9572797366391516E+01    9.6231664296830406E+00    1.4678955536771838E+00
C    2.6026974464087694E+01    1.0853327206037587E+01    1.6984163718358192E+00
C    2.7437871820464579E+01    1.0899219419646197E+01    1.7377577675981024E+00
C    2.8152126496863556E+01    1.2107043204591948E+01    1.7855954839169645E+00
C    2.9569542374969121E+01    1.2111141203994007E+01    1.6612983324698567E+00
C    2.6010647001999462E+01    1.3326394928792654E+01    1.8110424285655393E+00
C    2.7455333570368584E+01    1.3326891311529494E+01    1.8611306454100738E+00
C    2.8121363164366556E+01    1.4609675401130195E+01    1.8869048835827789E+00
C    2.9579328379123218E+01    1.4572864706363797E+01    1.7562160544150229E+00
C    2.5977927847975142E+01    1.5788555915822840E+01    1.9410608290429787E+00
C    2.7448699670710187E+01    1.5843098352406903E+01    1.9835114418882036E+00
C    2.8152516131248028E+01    1.7066304123155032E+01    2.0311106944032158E+00
C    2.9590596927167702E+01    1.7053872815664089E+01    1.9545913995971504E+00
C    2.6019256965969134E+01    1.8280490924556936E+01    1.9222193236565959E+00
C    2.7435355540353132E+01    1.8299406247005827E+01    2.0352774431776135E+00
C    2.8192393349145529E+01    7.1796036557017588E+00    1.4699303966794732E+00
C    2.9587786441024271E+01    7.1531154304094109E+00    1.5415279798350117E+00
C    1.7462708220732360E+01    2.0756532596999126E+01    1.7604628414571368E+00
C    1.8866902023098632E+01    2.0754680027209474E+01    1.6301330151994879E+00
C    1.9582307657057886E+01    2.1977267704437971E+01    1.6370844986229591E+00
C    2.1001574829532316E+01    2.2012883740366146E+01    1.7133198831034560E+00
C    1.7465772040489856E+01    2.3209722094997385E+01    1.6556162906186858E+00
C    1.8866457266741989E+01    2.3191735494601527E+01    1.6589401655636067E+00
C    1.9579999620914911E+01    2.4419397925935183E+01    1.6168525802149618E+00
C    2.0989591534182626E+01    2.4444650602546265E+01    1.6374402199120044E+00
C    1.7480410849632097E+01    2.5666210890423802E+01    1.6260591825618795E+00
C    1.8893117434924008E+01    2.5665815137434809E+01    1.6727900133009317E+00
C    1.9584842861706949E+01    2.6927430148608554E+01    1.6672173541832203E+00
C    2.1007413318981875E+01    2.6913888245382882E+01    1.6027717179147318E+00
C    1.7501385935532006E+01    2.8167130553909217E+01    1.5281680826185495E+00
C    1.8884805503835512E+01    2.8127222490665112E+01    1.6450221154265692E+00
C    1.9596882263577136E+01    2.9384338390282696E+01    1.7248286705208824E+00
C    2.1000793001553657E+01    2.9366316728407231E+01    1.7217615793278951E+00
C    1.7462923241909628E+01    3.0641302436672021E+01    1.6383806141531410E+00
C    1.8920096167714739E+01    3.0623177649794005E+01    1.7761806836806331E+00
C    1.9584701900632759E+01    1.9537684506171814E+01    1.6043224235713329E+00
C    2.1018982950473006E+01    1.9558362835450328E+01    1.6759952690502196E+00
C    2.1724797960118490E+01    2.0784598405406804E+01    1.7095587697801022E+00
C    2.3144417313939286E+01    2.0731227717044455E+01    1.7064958994518757E+00
C    2.3880646666563205E+01    2.1988519195205370E+01    1.7145468202950960E+00
C    2.5301843923845809E+01    2.1937726277464115E+01    1.7958073400893926E+00
C    2.1735783928148930E+01    2.3229729496960594E+01    1.6978969907446719E+00
C    2.3140318015924692E+01    2.3228075876587670E+01    1.6936792836739913E+00
C    2.3860998290328524E+01    2.4442763487323369E+01    1.6696994340410085E+00
C    2.5320178848751741E+01    2.4413974070753088E+01    1.6583579012276781E+00
C    2.1698143556911184E+01    2.5696019527522871E+01    1.5798480228868275E+00
C    2.3157224181739817E+01    2.5683640289645446E+01    1.5741888757500291E+00
C    2.3875416115177959E+01    2.6908988859866650E+01    1.4479403489597620E+00
C    2.5307002162653969E+01    2.6904820071571606E+01    1.4260107141089013E+00
C    2.1699918301467122E+01    2.8136784544626799E+01    1.5136076086986783E+00
C    2.3149023322515848E+01    2.8128644404720131E+01    1.4370817515707355E+00
C    2.3838739527682886E+01    2.9356903355476692E+01    1.4816856722556135E+00
C    2.5284396439885249E+01    2.9370069847428027E+01    1.4892644060002624E+00
C    2.1739483712519679E+01    3.0639440279021141E+01    1.7657328371907590E+00
C    2.3149899015344293E+01    3.0634131536517991E+01    1.5730983564692393E+00
C    2.3888964995965143E+01    1.9505697438289850E+01    1.8694693469593973E+00
C    2.5307615771150253E+01    1.9511512675272787E+01    1.9255933878620821E+00
C    2.6025157098359948E+01    2.0724739914593044E+01    1.8775546818023394E+00
C    2.7444746312703195E+01    2.0746804486860626E+01    1.8698933516842151E+00
C    2.8136351311768930E+01    2.1979837596019880E+01    1.7650654003298476E+00
C    2.9580967951813761E+01    2.1987528723822567E+01    1.8043043143014041E+00
C    2.6017138527441741E+01    2.3153350969304228E+01    1.7487877392108899E+00
C    2.7436199376928322E+01    2.3204011021650341E+01    1.6823014995672090E+00
C    2.8137285239986301E+01    2.4434879672530581E+01    1.6085245955467460E+00
C    2.9537032874005462E+01    2.4435910525229893E+01    1.7179183541143292E+00
C    2.6011884194894339E+01    2.5688361150796602E+01    1.6036050926071210E+00
C    2.7429591996500424E+01    2.5703390310798220E+01    1.5974690219762997E+00
C    2.8186735823961691E+01    2.6921262799317663E+01    1.5165767275525897E+00
C    2.9604611428409427E+01    2.6920715553443202E+01    1.5665406249235101E+00
C    2.6013920945285356E+01    2.8161591270383767E+01    1.3774935991791328E+00
C    2.7478944819820821E+01    2.8156332878534737E+01    1.4175324634807716E+00
C    2.8184158864140642E+01    2.9377871502631535E+01    1.4628818515671806E+00
C    2.9637821156909272E+01    2.9382734304412271E+01    1.4331000268523224E+00
C    2.5979458656960706E+01    3.0622474292867345E+01    1.5010714918808008E+00
C    2.7427949137339297E+01    3.0610607891117002E+01    1.5089949586203719E+00
C    2.8156583922055070E+01    1.9530872412973768E+01    1.9783023177606087E+00
C    2.9551155652632254E+01    1.9533240663632665E+01    2.0120208111818698E+00
O    2.5587913720542736E+02   -1.1164442859032476E+02    9.0021587444466409E+00
H    2.5647816824062659E+02   -1.1165978844702592E+02    9.7625035083215508E+00
H    2.5497681490225855E+02   -1.1185339023525633E+02    9.3106570657139418E+00
O    2.1611602993892635E+02   -1.2943262797043755E+02    1.9224993749548677E+01
H    2.1596577541458632E+02   -1.3040607881468571E+02    1.9076781129272714E+01
H    2.1523718929837977E+02   -1.2900630601938562E+02    1.8877013634932009E+01
O    3.4089909334897516E+02   -1.1290494086282622E+02    1.8777421016867706E+01
H    3.4023284978140543E+02   -1.1220962431116907E+02    1.8985835816943300E+01
H    3.4063965215187068E+02   -1.1361181227028777E+02    1.9357420665977347E+01
O    2.7855300004920298E+02   -1.6683258662311610E+02    1.8527149229307586E+01
H    2.7920278877857254E+02   -1.6623042222277491E+02    1.8141413796320084E+01
H    2.7893476578156890E+02   -1.6722745922920075E+02    1.9282678384695490E+01
O    2.6598562331432703E+02   -5.1795864054322458E+01    1.2630749889291554E+01
H    2.6511050421002636E+02   -5.1576173331057518E+01    1.2164472186017907E+01
H    2.6598361126501379E+02   -5.2750655068258204E+01    1.2729604321613513E+01
O    2.5274243180200295E+02   -1.4209582614315207E+02    1.2325832079389908E+01
H    2.5259136451405433E+02   -1.4156895440955617E+02    1.3202308939072816E+01
H    2.5220378455056368E+02   -1.4290811237590557E+02    1.2393232815300259E+01
O    3.5070622905580262E+02   -1.0888357351980750E+02    1.9855391529007356E+01
H    3.5092842102979029E+02   -1.0830480629931343E+02    1.9098687751830621E+01
H    3.5135316962398502E+02   -1.0958224245777535E+02    1.9749741772840522E+01
O    2.7258774574284035E+02   -1.9161719263481788E+02    4.8773538453404095E+00
H    2.7317911843609289E+02   -1.9088012670046641E+02    4.6922474627909754E+00
H    2.7238239698094850E+02   -1.9157324360684609E+02    5.7990952119627561E+00
O    1.8926807204631720E+02   -8.2434082075239942E+01    1.2746114215584772E+01
H    1.9000630648035056E+02   -8.2901512474942706E+01    1.2230967156769612E+01
H    1.8849157051201445E+02   -8.2462519156754752E+01    1.2103285244633707E+01
O    3.6510572876604886E+02   -7.2431943710873668E+01    1.6159162075818948E+01
H    3.6492730824290112E+02   -7.3362497532582609E+01    1.6508809937448611E+01
H    3.6425188840609098E+02   -7.2119863423464182E+01    1.5833920784602181E+01
O    1.9157953261936586E+02   -1.2390713834258619E+02    7.2306388454032371E+00
H    1.9140356220471725E+02   -1.2488071465919906E+02    7.2574983163325424E+00
H    1.9190713595864332E+02   -1.2372854182636414E+02    6.3122701567273660E+00
O    1.7229619990731319E+02   -7.5973134792848057E+01    1.4116543865801704E+01
H    1.7313020660611576E+02   -7.5417668997700147E+01    1.4311232201530927E+01
H    1.7247965827850371E+02   -7.6921272594101538E+01    1.4388813987192668E+01
O    1.1640590545231923E+02   -1.5889829203878097E+02    5.1074523800307139E+00
H    1.1727555647480246E+02   -1.5938773985893073E+02    5.3693032443850681E+00
H    1.1634926416234789E+02   -1.5921089786949162E+02    4.1272971109488052E+00
O    2.3934794946400723E+02   -2.1016816227593665E+02    1.3339901870936215E+01
H    2.3908716791163943E+02   -2.1045912872371923E+02    1.2466161722317475E+01
H    2.4024774239275635E+02   -2.0974352721714743E+02    1.3387199588389624E+01
O    1.3615626042599729E+02    4.2065344441957713E+01    6.2141338139100553E+00
H    1.3677716437840073E+02    4.1617216409845724E+01    5.5710407510156434E+00
H    1.3607805072793556E+02    4.2974587533207171E+01    5.9003257394596522E+00
O    2.1907244239448886E+02   -5.2630672106301880E+01    1.4900298049118355E+01
H    2.1972257385153969E+02   -5.2449831698443255E+01    1.5603346339137774E+01
H    2.1823204139482931E+02   -5.2660720424138034E+01    1.5456501519165752E+01
O    2.2236609810633459E+02   -7.2430956959070713E+01    1.4071106366237007E+01
H    2.2291527832531901E+02   -7.1781691952822001E+01    1.4553866159688724E+01
H    2.2159359484370700E+02   -7.2558625314650143E+01    1.4665038568301831E+01
O    2.8622331959274862E+02   -1.0456622790437898E+02    5.7464207544427799E+00
H    2.8526317540175296E+02   -1.0428122396209697E+02    5.5160601618932743E+00
H    2.8638695572037528E+02   -1.0416199950786209E+02    6.6668018897566252E+00
O    2.5540890674830237E+02   -9.9850994017384565E+01    1.4566402988559485E+01
H    2.5507267509835646E+02   -1.0068837843396724E+02    1.4072566266780754E+01