 # Version information for this restart file 
 # current date 2020-01-19 14:05:16.157
 # current working dir /scratch/snx3000/gtocci/gtocci/MEMBRANES/AIMD_US_IONS_BN/aimd_us_iodide/us_30
 # Program compiled at                              Fri Nov 22 15:19:42 CET 2019
 # Program compiled on                                                  daint102
 # Program compiled for                                   CRAY_XC50-gfortran_gpu
 # Source code revision number                                       git:a698b45
 &GLOBAL
   PRINT_LEVEL  LOW
   PROJECT_NAME BNS
   RUN_TYPE  MD
   WALLTIME 86400
 &END GLOBAL
 &MOTION
   &MD
     ENSEMBLE  NVT
     STEPS  2000
     TIMESTEP     9.9999999999999989E-01
     STEP_START_VAL  42513
     TIME_START_VAL     4.2512999999988344E+04
     ECONS_START_VAL    -8.4829345257694331E+03
     TEMPERATURE     3.0000000000000000E+02
     TEMP_KIND  T
     &BAROSTAT
       PRESSURE     1.0000000000000000E+00
       TIMECON     9.9999999999999986E+01
       VIRIAL  Z
     &END BAROSTAT
     &THERMOSTAT
       TYPE  NOSE
       REGION  GLOBAL
       &NOSE
         LENGTH  4
         TIMECON     9.9999999999999986E+01
         MTS  2
         &COORD
               2.8670958732672469E-01   -1.3964450035601216E+01   -7.5487522172149371E+00    2.4332909397241043E+01
         &END COORD
         &VELOCITY
              -1.6489518777798360E-06    1.9743633063985511E-05    1.0495444990578602E-04   -4.8265029344504891E-04
         &END VELOCITY
         &MASS
               7.0145132684705392E+07    1.6237299232570693E+04    1.6237299232570693E+04    1.6237299232570693E+04
         &END MASS
         &FORCE
               1.4943402113941060E-10   -4.6763751134695713E-08   -5.8120202803539763E-08   -4.7494577295078926E-08
         &END FORCE
       &END NOSE
     &END THERMOSTAT
     &AVERAGES  T
       &RESTART_AVERAGES
         ITIMES_START  1
         AVECPU     2.4696915817228657E+01
         AVEHUGONIOT     0.0000000000000000E+00
         AVETEMP_BARO     0.0000000000000000E+00
         AVEPOT    -8.4857852321018254E+03
         AVEKIN     2.0538788975876781E+00
         AVETEMP     3.0026059524121717E+02
         AVEKIN_QM     0.0000000000000000E+00
         AVETEMP_QM     0.0000000000000000E+00
         AVEVOL     2.2086622704881159E+05
         AVECELL_A     4.9287836997924984E+01
         AVECELL_B     4.7426456757032106E+01
         AVECELL_C     9.4486306644279694E+01
         AVEALPHA     9.0000000000000000E+01
         AVEBETA     9.0000000000000000E+01
         AVEGAMMA     9.0000000000000000E+01
         AVE_ECONS     4.3272751130323691E+01
         AVE_PRESS     0.0000000000000000E+00
         AVE_PXX     0.0000000000000000E+00
       &END RESTART_AVERAGES
     &END AVERAGES
     &PRINT
       &TEMP_KIND  SILENT
       &END TEMP_KIND
     &END PRINT
   &END MD
   &FREE_ENERGY
     &METADYN
       MIN_DISP    -1.0000000000000000E+00
       OLD_HILL_NUMBER  0
       OLD_HILL_STEP  0
       DO_HILLS  F
       STEP_START_VAL  42513
       NHILLS_START_VAL  0
       &METAVAR
         SCALE     1.0000000000000000E+00
         COLVAR  1
       &END METAVAR
       &PRINT
         &COLVAR  SILENT
           COMMON_ITERATION_LEVELS  3
           &EACH
             MD  1
           &END EACH
         &END COLVAR
       &END PRINT
     &END METADYN
   &END FREE_ENERGY
   &CONSTRAINT
     &COLLECTIVE
       COLVAR  1
       INTERMOLECULAR  T
       &RESTRAINT
         K     4.4625385281452931E-04
       &END RESTRAINT
     &END COLLECTIVE
     &COLVAR_RESTART
           2.8568225737236869E+01
     &END COLVAR_RESTART
   &END CONSTRAINT
   &PRINT
     &TRAJECTORY  SILENT
       &EACH
         MD  1
       &END EACH
     &END TRAJECTORY
     &VELOCITIES  SILENT
       &EACH
         MD  1
       &END EACH
     &END VELOCITIES
     &FORCES  SILENT
       UNIT eV*angstrom^-1
       &EACH
         MD  1
       &END EACH
     &END FORCES
     &RESTART  SILENT
       &EACH
         MD  1
       &END EACH
     &END RESTART
     &RESTART_HISTORY  SILENT
       &EACH
         MD  100
       &END EACH
     &END RESTART_HISTORY
   &END PRINT
 &END MOTION
 &FORCE_EVAL
   METHOD  QS
   &DFT
     BASIS_SET_FILE_NAME /users/gtocci/scratch_daint_3000/data_cp2k//BASIS_MOLOPT
     POTENTIAL_FILE_NAME /users/gtocci/scratch_daint_3000/data_cp2k//GTH_POTENTIALS
     WFN_RESTART_FILE_NAME ./BNS-RESTART.wfn
     CHARGE  -1
     &SCF
       MAX_SCF  10
       EPS_SCF     9.9999999999999995E-07
       SCF_GUESS  RESTART
       &OT  T
         MINIMIZER  DIIS
         PRECONDITIONER  FULL_KINETIC
       &END OT
       &OUTER_SCF  T
         EPS_SCF     9.9999999999999995E-07
         MAX_SCF  30
       &END OUTER_SCF
       &PRINT
         &RESTART  SILENT
           ADD_LAST  NUMERIC
           &EACH
             QS_SCF  50
           &END EACH
         &END RESTART
       &END PRINT
     &END SCF
     &QS
       MAP_CONSISTENT  T
       EXTRAPOLATION  ASPC
       EXTRAPOLATION_ORDER  4
     &END QS
     &MGRID
       NGRIDS  5
       CUTOFF     4.6000000000000000E+02
     &END MGRID
     &XC
       DENSITY_CUTOFF     1.0000000000000000E-10
       GRADIENT_CUTOFF     1.0000000000000000E-10
       TAU_CUTOFF     1.0000000000000000E-10
       &XC_GRID
         XC_DERIV  SPLINE2_SMOOTH
       &END XC_GRID
       &XC_FUNCTIONAL  NO_SHORTCUT
         &LIBXC  T
           FUNCTIONAL XC_GGA_X_OPTB88_VDW
         &END LIBXC
         &VWN  T
         &END VWN
       &END XC_FUNCTIONAL
       &VDW_POTENTIAL
         POTENTIAL_TYPE  NON_LOCAL
         &NON_LOCAL
           TYPE  DRSLL
           VERBOSE_OUTPUT  T
           KERNEL_FILE_NAME /users/gtocci/scratch_daint_3000/data_cp2k//vdW_kernel_table.dat
           CUTOFF     3.6000000000000000E+02
         &END NON_LOCAL
       &END VDW_POTENTIAL
     &END XC
     &REAL_TIME_PROPAGATION
       INITIAL_WFN  SCF_WFN
     &END REAL_TIME_PROPAGATION
     &PRINT
       &MULLIKEN  SILENT
         FILENAME =BNS.mulliken
       &END MULLIKEN
     &END PRINT
   &END DFT
   &SUBSYS
     &CELL
       A     2.6082000000000019E+01    0.0000000000000000E+00    0.0000000000000000E+00
       B     0.0000000000000000E+00    2.5097000000000001E+01    0.0000000000000000E+00
       C     0.0000000000000000E+00    0.0000000000000000E+00    5.0000000000000028E+01
       MULTIPLE_UNIT_CELL  1 1 1
     &END CELL
     &COORD
B   -1.4265341136010777E+01    1.0035936313317718E+01   -2.9178338646359148E+01
B   -1.2135306354192807E+01    1.1255920614313613E+01   -2.9451120708041024E+01
B   -1.4302483731252440E+01    1.2527468327285339E+01   -2.9382851199011764E+01
B   -1.2123127817902466E+01    1.3815188275745003E+01   -2.9637765798944461E+01
B   -1.4312972366416471E+01    1.5053113276815946E+01   -2.9642526625524741E+01
B   -1.2182207034623980E+01    1.6325142161696355E+01   -2.9622731606455879E+01
B   -1.4338211398624708E+01    1.7575221459545094E+01   -2.9868521123135650E+01
B   -1.2090125951531006E+01    1.8826080109579262E+01   -2.9693615660287950E+01
B   -1.4231189061687470E+01    2.0047439059303198E+01   -2.9917085570211871E+01
B   -1.2134256497183866E+01    2.1360586684410173E+01   -2.9709170093550892E+01
B   -9.9322008991008630E+00    1.0015917771629649E+01   -2.9490209370548886E+01
B   -7.7589311142843300E+00    1.1246977919494972E+01   -2.9748794066724283E+01
B   -9.9729688502419283E+00    1.2517124985251629E+01   -2.9738833459514254E+01
B   -7.8204583774549619E+00    1.3755428388888381E+01   -2.9753491958067112E+01
B   -9.9978952771389711E+00    1.5041686067914826E+01   -2.9689278186305891E+01
B   -7.7759137535351499E+00    1.6249531242497003E+01   -2.9712281711945717E+01
B   -9.9738765284114166E+00    1.7548132800811977E+01   -2.9742717408998715E+01
B   -7.7488790179362734E+00    1.8780719754349718E+01   -2.9891172600220731E+01
B   -9.9311235897692800E+00    2.0080199370964564E+01   -2.9635161655539715E+01
B   -7.7390277016053624E+00    2.1287646737196919E+01   -2.9718417116742025E+01
B   -5.5133076839694946E+00    9.9983808784804609E+00   -2.9538597757445267E+01
B   -3.3825158041374874E+00    1.1274792664596658E+01   -2.9511737003004558E+01
B   -5.6003729778890117E+00    1.2575787831101158E+01   -2.9771171850287242E+01
B   -3.4091211271936146E+00    1.3767498400862060E+01   -2.9631714526251169E+01
B   -5.5897937726024178E+00    1.5028539102188335E+01   -2.9686108749496629E+01
B   -3.3825518143720039E+00    1.6240308579153183E+01   -2.9860298965840212E+01
B   -5.5815132402043686E+00    1.7493444008343239E+01   -2.9789372667859496E+01
B   -3.4439731205171684E+00    1.8767186864961285E+01   -2.9848796314296909E+01
B   -5.5954214326935379E+00    2.0072891470783137E+01   -2.9873411981543494E+01
B   -3.4086186726559315E+00    2.1318337027289935E+01   -3.0013303802245812E+01
N   -1.2861430089312448E+01    9.9632068663277220E+00   -2.9410940453576622E+01
N   -1.0712988700381393E+01    1.1302692665060345E+01   -2.9531595337317338E+01
N   -1.2852802077084515E+01    1.2554497701183138E+01   -2.9537765604339672E+01
N   -1.0699660732680542E+01    1.3745749935883877E+01   -2.9704978713573794E+01
N   -1.2911813494316300E+01    1.5079961663951748E+01   -2.9525243096616848E+01
N   -1.0716588292401838E+01    1.6295314583991622E+01   -2.9645027637597643E+01
N   -1.2860525162621693E+01    1.7562242460150543E+01   -2.9746314792121698E+01
N   -1.0640831457603163E+01    1.8804511782189543E+01   -2.9716692668506521E+01
N   -1.2823752059967651E+01    2.0112987894235133E+01   -2.9700223399277032E+01
N   -1.0656411813385985E+01    2.1361250493714770E+01   -2.9629509734787472E+01
N   -8.4967084181843848E+00    1.0035702724546343E+01   -2.9583239551212593E+01
N   -6.3116601990654866E+00    1.1260586372074780E+01   -2.9739548715980796E+01
N   -8.5130291094051849E+00    1.2511571587826172E+01   -2.9834065066978393E+01
N   -6.3353899925243891E+00    1.3806238822581161E+01   -2.9739134223754885E+01
N   -8.5134508865672220E+00    1.4990159391066046E+01   -2.9786817008989580E+01
N   -6.3445361345255424E+00    1.6260015640442031E+01   -2.9545731325493751E+01
N   -8.4659055291053651E+00    1.7471681067958066E+01   -2.9824657335536049E+01
N   -6.2512284569735206E+00    1.8791102476807769E+01   -2.9888917439559538E+01
N   -8.4809055142711891E+00    2.0032590973937307E+01   -2.9816314351504772E+01
N   -6.3009445719943322E+00    2.1298624800714087E+01   -2.9857005016721452E+01
N   -4.0941352883722919E+00    1.0027947976560307E+01   -2.9500370353316878E+01
N   -1.9687556782786724E+00    1.1269346195028746E+01   -2.9434996469151788E+01
N   -4.1033908567074997E+00    1.2527595580147359E+01   -2.9582080932322000E+01
N   -1.9317133089897247E+00    1.3808664426192802E+01   -2.9710848340062721E+01
N   -4.1588420405653048E+00    1.5039626828283216E+01   -2.9677869541845990E+01
N   -1.9553772251923656E+00    1.6288108347667254E+01   -2.9841664065337213E+01
N   -4.1453044329877970E+00    1.7485436250761879E+01   -2.9845064502129102E+01
N   -1.9980274111155867E+00    1.8811915931551074E+01   -2.9848858338019021E+01
N   -4.1674385893694081E+00    2.0034134771648517E+01   -2.9958828025006220E+01
N   -1.9705025672035243E+00    2.1299149091804747E+01   -2.9972633342093843E+01
B   -1.4303450195655364E+01    2.2630711377970151E+01   -2.9898332671765008E+01
B   -1.2109448565833720E+01    2.3844341643950617E+01   -2.9627807560826643E+01
B   -1.4207684671277960E+01    2.5078193202103126E+01   -2.9511371926129499E+01
B   -1.2040719933156780E+01    2.6337675895674749E+01   -2.9178490461783426E+01
B   -1.4207622235186628E+01    2.7559112079223059E+01   -2.9069893203933560E+01
B   -1.2061719947177130E+01    2.8787632385447914E+01   -2.8891366612349284E+01
B   -1.4259521742162626E+01    3.0093470739690105E+01   -2.8830425081634065E+01
B   -1.2146316882738510E+01    3.1377144251926630E+01   -2.8766134880773130E+01
B   -1.4273779187919246E+01    3.2616787480086913E+01   -2.8860131998269502E+01
B   -1.2105239875210787E+01    3.3828884202068778E+01   -2.9253426631667732E+01
B   -9.8892327469270835E+00    2.2551924471298825E+01   -2.9643084922452658E+01
B   -7.7539646939200031E+00    2.3827485846871483E+01   -2.9599756006446157E+01
B   -9.9249914977722220E+00    2.5028502623662490E+01   -2.9309131475841827E+01
B   -7.7611244297325301E+00    2.6327610138116228E+01   -2.9445015294907481E+01
B   -9.9569355874228176E+00    2.7595195273587990E+01   -2.9017287621467474E+01
B   -7.7896965612951288E+00    2.8901718392618363E+01   -2.9404240378336791E+01
B   -9.9388249910542950E+00    3.0128627795639755E+01   -2.9076644971805862E+01
B   -7.7659613706688990E+00    3.1364958298018493E+01   -2.9367940444156464E+01
B   -9.9499507882859266E+00    3.2568788256203774E+01   -2.9321669219843251E+01
B   -7.7098535206641561E+00    3.3949651777750859E+01   -2.9401500056730622E+01
B   -5.6083420557233730E+00    2.2570834181645729E+01   -2.9895809577891157E+01
B   -3.4412225106671843E+00    2.3829161039753021E+01   -2.9890525048193325E+01
B   -5.6032998325981849E+00    2.5105164890615775E+01   -2.9862092455448014E+01
B   -3.3883745059148933E+00    2.6335466614958744E+01   -2.9791219986403046E+01
B   -5.5407943745113277E+00    2.7593887139277832E+01   -2.9657143220641281E+01
B   -3.3972325351132699E+00    2.8864919931970629E+01   -2.9628071976388785E+01
B   -5.6008116884043400E+00    3.0090867605414406E+01   -2.9540065107801855E+01
B   -3.4423252416580072E+00    3.1333811261828650E+01   -2.9441740490706625E+01
B   -5.5567354479159450E+00    3.2599549425739923E+01   -2.9385763030395143E+01
B   -3.3572706382810247E+00    3.3837571032396951E+01   -2.9447083083176697E+01
N   -1.2828095008927228E+01    2.2594902983260905E+01   -2.9808805080698594E+01
N   -1.0640635203681056E+01    2.3804179638388781E+01   -2.9534262249408783E+01
N   -1.2789628721612424E+01    2.5118054304381978E+01   -2.9416206642565889E+01
N   -1.0649345223723566E+01    2.6279103936607175E+01   -2.8985635890104646E+01
N   -1.2786775899976931E+01    2.7533179162490924E+01   -2.8991958290274692E+01
N   -1.0677947430277303E+01    2.8841609649216700E+01   -2.8871001324461435E+01
N   -1.2859062023687178E+01    3.0089001639093020E+01   -2.8713566758572355E+01
N   -1.0697367874541678E+01    3.1368542714649639E+01   -2.9044429229269706E+01
N   -1.2833704990680619E+01    3.2589612543961302E+01   -2.8923043411728560E+01
N   -1.0646710325139557E+01    3.3857177069094291E+01   -2.9414052317968149E+01
N   -8.4649015035197603E+00    2.2533197506772144E+01   -2.9564091961290917E+01
N   -6.2894353131230343E+00    2.3856797204633068E+01   -2.9814018060760354E+01
N   -8.4399599713329945E+00    2.5081359213935837E+01   -2.9430753854445499E+01
N   -6.2776917176692919E+00    2.6331766468551976E+01   -2.9707422497717783E+01
N   -8.5019162235915093E+00    2.7619833377565499E+01   -2.9259363639884079E+01
N   -6.3256362360878198E+00    2.8838073793546744E+01   -2.9594509856076989E+01
N   -8.5107882861253223E+00    3.0108915489886261E+01   -2.9394462631912759E+01
N   -6.3175937260590702E+00    3.1324379267324264E+01   -2.9469665348161943E+01
N   -8.4709068874960849E+00    3.2619677486613334E+01   -2.9312741341620136E+01
N   -6.2706477946898440E+00    3.3867664414876323E+01   -2.9467881566333528E+01
N   -4.1384293536887897E+00    2.2563016628395289E+01   -3.0082810862546854E+01
N   -1.9981909699077947E+00    2.3812935462093883E+01   -2.9820419078926133E+01
N   -4.1325359018980956E+00    2.5094754913650370E+01   -2.9992055570610095E+01
N   -1.9214973735668694E+00    2.6303447462459346E+01   -2.9800481204403489E+01
N   -4.1018476285152978E+00    2.7575875096079869E+01   -2.9655736167180429E+01
N   -1.9668538804446938E+00    2.8858669995745611E+01   -2.9563360536931164E+01
N   -4.1724632430002409E+00    3.0089616766984296E+01   -2.9646257920207205E+01
N   -2.0066896542763470E+00    3.1335002754776927E+01   -2.9414562449275781E+01
N   -4.1577365880480714E+00    3.2608248471078326E+01   -2.9415538746164650E+01
N   -1.9091353051058546E+00    3.3823973935295463E+01   -2.9374751424959449E+01
B   -1.2548504520577657E+00    1.0034867046465221E+01   -2.9405305594385194E+01
B    9.4989898006728191E-01    1.1276347396348562E+01   -2.9551161805077403E+01
B   -1.1978525225075323E+00    1.2513010375432748E+01   -2.9636548523478243E+01
B    9.6776683988842716E-01    1.3832807580521063E+01   -2.9743697105329783E+01
B   -1.2021070477939206E+00    1.5038762936456191E+01   -2.9805769057305628E+01
B    9.2448885738157738E-01    1.6224221364165302E+01   -2.9782954301718227E+01
B   -1.2464933800081504E+00    1.7532121251978559E+01   -2.9833868176813180E+01
B    9.2974077248140907E-01    1.8770065476912784E+01   -2.9720696035615848E+01
B   -1.2060653650960147E+00    2.0101135337190232E+01   -2.9918980657933311E+01
B    9.6783867656996969E-01    2.1313953872777397E+01   -2.9819413323586442E+01
B    3.1225195688722671E+00    1.0044877257617561E+01   -2.9284868905377213E+01
B    5.3146962788730789E+00    1.1279460715018200E+01   -2.9357194749230935E+01
B    3.1636803197542944E+00    1.2483161336438535E+01   -2.9608003141130837E+01
B    5.3031069218053482E+00    1.3794951833935416E+01   -2.9839010722227250E+01
B    3.1256287210009868E+00    1.4978891110067709E+01   -2.9844444558808686E+01
B    5.3195586296080899E+00    1.6231409413080844E+01   -2.9892659370245408E+01
B    3.0964613548813165E+00    1.7554773632314792E+01   -2.9833065453065966E+01
B    5.2845939691132973E+00    1.8805205952878005E+01   -2.9856147506327627E+01
B    3.1526671423974961E+00    2.0080584595205959E+01   -2.9832936737518892E+01
B    5.3624524936805136E+00    2.1307862390584425E+01   -2.9740061875134508E+01
B    7.4215571138626002E+00    1.0034541077552685E+01   -2.9286495980170713E+01
B    9.6443220903625910E+00    1.1280026640570167E+01   -2.9315304743932014E+01
B    7.4590909842228745E+00    1.2526939404466619E+01   -2.9534712223829917E+01
B    9.6496195579346704E+00    1.3768539000639075E+01   -2.9490023872183180E+01
B    7.4481623365688225E+00    1.5062304982326269E+01   -2.9828365499455483E+01
B    9.6272785115128325E+00    1.6340831255162556E+01   -2.9643546477405817E+01
B    7.4430398996371263E+00    1.7551572774063075E+01   -2.9795050956040669E+01
B    9.6273846225797577E+00    1.8816509376707618E+01   -2.9951090908752377E+01
B    7.4586737505958132E+00    2.0064943639182186E+01   -2.9808197333230666E+01
B    9.6884952303930678E+00    2.1344046047358297E+01   -2.9922441934703695E+01
N    2.3623659041293465E-01    1.0053298208361110E+01   -2.9438787892509605E+01
N    2.4183529705185851E+00    1.1325581391657000E+01   -2.9409529748608108E+01
N    2.0190831847488366E-01    1.2571436197699818E+01   -2.9759022626441638E+01
N    2.3934809911315029E+00    1.3725284137512654E+01   -2.9761680698892018E+01
N    2.5798898753798494E-01    1.5015810140573834E+01   -2.9704103766599026E+01
N    2.3963527778542630E+00    1.6261516254635925E+01   -2.9771953730175891E+01
N    2.0434985637456396E-01    1.7496039338229568E+01   -2.9782072606044501E+01
N    2.3482345678176046E+00    1.8782482202297683E+01   -2.9855946962678363E+01
N    2.1069956259488093E-01    2.0053265475771855E+01   -2.9828840166142033E+01
N    2.4125562150750897E+00    2.1326972642751130E+01   -2.9796222074508975E+01
N    4.5615338473471390E+00    1.0071749482407672E+01   -2.9138413868882623E+01
N    6.7680128814966789E+00    1.1269993857871988E+01   -2.9488313899627251E+01
N    4.6215533307802410E+00    1.2516750684033219E+01   -2.9546082572002582E+01
N    6.7219441341615145E+00    1.3772336330717323E+01   -2.9758304323035933E+01
N    4.5553554607699374E+00    1.4982942671862306E+01   -2.9937157437583970E+01
N    6.7529219445079729E+00    1.6299217923407404E+01   -2.9980666608161950E+01
N    4.5553964321675107E+00    1.7543756033292315E+01   -2.9868812469276236E+01
N    6.7347752042855840E+00    1.8848686260494773E+01   -2.9776643213648107E+01
N    4.5252530340317998E+00    2.0056267508136820E+01   -2.9854989175491809E+01
N    6.7868412238187883E+00    2.1310495714007182E+01   -2.9616676592089949E+01
N    8.9130126892815902E+00    1.0034354837142230E+01   -2.9230785209605614E+01
N    1.1093933893308099E+01    1.1339563479133748E+01   -2.9234105327692617E+01
N    8.9392276014231751E+00    1.2543745997377936E+01   -2.9427700173864800E+01
N    1.1098137701847664E+01    1.3808716520436809E+01   -2.9444233869751702E+01
N    8.8976297315465818E+00    1.5080277125505356E+01   -2.9562426631122502E+01
N    1.1040706156798134E+01    1.6319362906389490E+01   -2.9749072691813797E+01
N    8.9324122206540810E+00    1.7569571231457395E+01   -2.9815027540301173E+01
N    1.1062896631228222E+01    1.8851531289188145E+01   -3.0022599643093663E+01
N    8.9088820833886828E+00    2.0067765808044189E+01   -2.9894093964236696E+01
N    1.1121580853696249E+01    2.1344552161567321E+01   -3.0012496192106678E+01
B   -1.2267351448071497E+00    2.2593470188431212E+01   -2.9845923934007672E+01
B    9.3203387022326412E-01    2.3872902051398000E+01   -2.9851430825636335E+01
B   -1.2588125279396123E+00    2.5040186876611934E+01   -2.9775677491299948E+01
B    9.7258326845656795E-01    2.6327382183242435E+01   -2.9588907213392215E+01
B   -1.2362196326710935E+00    2.7586988581365890E+01   -2.9578002878742943E+01
B    9.0745402714542311E-01    2.8844472185785811E+01   -2.9500325101025499E+01
B   -1.2210627547442652E+00    3.0119927895650921E+01   -2.9469769462682635E+01
B    1.0169854146564037E+00    3.1355432869721199E+01   -2.9390594553035314E+01
B   -1.2136821950477421E+00    3.2568672022733082E+01   -2.9314508234004432E+01
B    9.1606134105025505E-01    3.3905861270133521E+01   -2.9518871690761451E+01
B    3.2095731062576851E+00    2.2606338646747332E+01   -2.9672980859609666E+01
B    5.3088245966684937E+00    2.3844168237840250E+01   -2.9699479337477104E+01
B    3.1595064333289828E+00    2.5076394248364256E+01   -2.9590360905838963E+01
B    5.2727648804311071E+00    2.6338259940990852E+01   -2.9464589158078159E+01
B    3.1011371180456488E+00    2.7612230563726875E+01   -2.9329132405332295E+01
B    5.3058615103490263E+00    2.8884894264917108E+01   -2.9222314414026712E+01
B    3.0985312614771376E+00    3.0071554562419230E+01   -2.9267212704724948E+01
B    5.3096589369944924E+00    3.1323563599972616E+01   -2.9302965983131951E+01
B    3.0859288019066091E+00    3.2584310500095775E+01   -2.9362952935991824E+01
B    5.2386701546182843E+00    3.3844963447465247E+01   -2.9169184909747599E+01
B    7.5436787971177237E+00    2.2611255099715947E+01   -2.9719812044338791E+01
B    9.7059728428841243E+00    2.3911827975152104E+01   -2.9876815700669109E+01
B    7.4758321739620106E+00    2.5137573787976667E+01   -2.9663109692504463E+01
B    9.7118008024502043E+00    2.6325345691540690E+01   -2.9409768942683435E+01
B    7.5122855659623413E+00    2.7625295495179710E+01   -2.9275035150302063E+01
B    9.6795479694883877E+00    2.8873259042509073E+01   -2.9118619573294197E+01
B    7.4601505678436935E+00    3.0056553828345400E+01   -2.9087525108884641E+01
B    9.6677081351041920E+00    3.1411723633091839E+01   -2.8880415170757338E+01
B    7.4658034008436083E+00    3.2561837540243971E+01   -2.9152236616425210E+01
B    9.5865188868529732E+00    3.3836103351103532E+01   -2.9225400270060767E+01
N    2.4857198187189269E-01    2.2558045854475338E+01   -2.9862036737598729E+01
N    2.4207421020912978E+00    2.3832980595290508E+01   -2.9778256368285628E+01
N    2.1316557818295243E-01    2.5025434121046764E+01   -2.9703073098642587E+01
N    2.3968516747369768E+00    2.6315259858271041E+01   -2.9466242960129307E+01
N    2.0509619336445262E-01    2.7550093414204408E+01   -2.9552999270006705E+01
N    2.3437661856190481E+00    2.8841133786408530E+01   -2.9334450169837904E+01
N    2.4997113187325046E-01    3.0096308417762934E+01   -2.9513091492746902E+01
N    2.4323433601922515E+00    3.1333826551587070E+01   -2.9382362055721750E+01
N    2.5253855687943960E-01    3.2597273320410814E+01   -2.9364360395650252E+01
N    2.3788387075189865E+00    3.3899922802066222E+01   -2.9461406178600249E+01
N    4.6138808564934708E+00    2.2629198274202253E+01   -2.9575819712947702E+01
N    6.7792572544009522E+00    2.3853971180695002E+01   -2.9869620116158821E+01
N    4.6110064556704984E+00    2.5089696070407694E+01   -2.9606765691137046E+01
N    6.7632994427960398E+00    2.6369358480947284E+01   -2.9502213067011301E+01
N    4.5296550995795872E+00    2.7599602438768262E+01   -2.9306506682656153E+01
N    6.7521148075642667E+00    2.8812067825719851E+01   -2.9102417267597072E+01
N    4.5790558824672827E+00    3.0074243217172448E+01   -2.9245548553289421E+01
N    6.7381873907115057E+00    3.1342340879311642E+01   -2.9179448251018311E+01
N    4.5069386357592007E+00    3.2574161963778451E+01   -2.9278861630445260E+01
N    6.7335366402410628E+00    3.3812615765667324E+01   -2.9209767897396674E+01
N    9.0132819490101070E+00    2.2590585573583805E+01   -2.9826934543007464E+01
N    1.1161599794282358E+01    2.3936136306769498E+01   -2.9950257204304432E+01
N    8.9504234894905128E+00    2.5083669157028787E+01   -2.9568337114972863E+01
N    1.1124789377554039E+01    2.6324089463433420E+01   -2.9281377436626542E+01
N    8.9917059266671995E+00    2.7621774423431180E+01   -2.9410416383209260E+01
N    1.1150812618550024E+01    2.8846502345246623E+01   -2.9000783603865653E+01
N    8.8959927494591788E+00    3.0128299090410046E+01   -2.8934649942023995E+01
N    1.1066617372578499E+01    3.1354101768975863E+01   -2.8738941990869254E+01
N    8.9253394131214314E+00    3.2551363097537696E+01   -2.9162079694158180E+01
N    1.1084964736482506E+01    3.3827982667011732E+01   -2.9013387962719335E+01
O    7.3922221593545018E+01    9.5537705250275096E+01   -1.8015738446571739E+01
H    7.3560053279458742E+01    9.6415808961998252E+01   -1.8295436190675989E+01
H    7.3096192886067755E+01    9.5005069441244615E+01   -1.8016760975442761E+01
O    3.3470422579132837E+01   -8.5722944324778261E-01   -2.3511550452473767E+01
H    3.3399625455831192E+01    1.3487390583991551E-01   -2.3433481740495655E+01
H    3.3200146942540790E+01   -1.1454366576450588E+00   -2.4427298274025798E+01
O    6.1929917315821825E+01    1.6569871741142133E+01   -1.4994737641683253E+01
H    6.2307391760288844E+01    1.7469941112651210E+01   -1.5155093326481410E+01
H    6.0934149200247546E+01    1.6673577605311390E+01   -1.5038449909479660E+01
O    5.5584894753836814E+01    5.5922713998501195E+01   -1.3149198901889147E+01
H    5.5910514162186828E+01    5.5710495598952164E+01   -1.4063391372198367E+01
H    5.5532987497536404E+01    5.4964588032823904E+01   -1.2865466821986670E+01
O    4.3675723262075749E+01    3.7215540469607063E+01   -2.1725350211324336E+01
H    4.2994406721128321E+01    3.6529227908167186E+01   -2.1889113214065031E+01
H    4.4280614352930762E+01    3.6748294439135947E+01   -2.1078719591005829E+01
O    5.8114907776415201E+01   -6.2115257839138813E+00   -2.0711609799947993E+01
H    5.7514042870455192E+01   -5.8548209033374752E+00   -2.0015987944906446E+01
H    5.7530138379123130E+01   -6.8917029018664602E+00   -2.1096895985494726E+01
O    8.6860465254432228E+01    5.0009743527251302E+01   -2.0035133564288024E+01
H    8.7310527423264986E+01    4.9212296504697491E+01   -1.9846450595168847E+01
H    8.6446586741235862E+01    5.0173664146473371E+01   -1.9185797872533385E+01
O    2.2221332475763372E+01    2.9394879868893895E+01   -2.1633969375572679E+01
H    2.2558341665444654E+01    2.8964702016926591E+01   -2.0790645966230407E+01
H    2.2769991446204305E+01    2.9093419536201448E+01   -2.2372763456621502E+01
O    6.6787604031479546E+01    3.5645686480465464E+01   -1.6908768739522902E+01
H    6.6602540065562820E+01    3.5089892553922724E+01   -1.7698001171769803E+01
H    6.6285237265512492E+01    3.5189879089655825E+01   -1.6186462987070055E+01
O    5.9928671597772848E+01    7.7303394564505567E+01   -2.3695942699155964E+01
H    6.0446578104302318E+01    7.7160269425130650E+01   -2.4500302618252025E+01
H    5.9071504433631937E+01    7.7702695280641862E+01   -2.3835019693203009E+01
O    2.3597676743127376E+01    5.4816252632350562E+01   -2.4055912553383237E+01
H    2.3649083950627080E+01    5.5746170800767189E+01   -2.3794685426665822E+01
H    2.4276835314923932E+01    5.4615334705391810E+01   -2.4803671996363352E+01
O    8.9040513566304881E+01    9.1900466040432221E+01   -2.2386421623836597E+01
H    8.8199496818737430E+01    9.1437395702261128E+01   -2.2661907327557792E+01
H    8.8935212135857881E+01    9.2765613662178865E+01   -2.1863833376743017E+01
O    3.9269417379721261E+01    8.4405062170890886E+01   -1.5069430731426888E+01
H    3.8488247022823046E+01    8.4906541315890252E+01   -1.4849527304816597E+01
H    3.9876791150289058E+01    8.4636169898017783E+01   -1.4336317068529510E+01
O    1.1504850561308923E+02    9.1728598474693342E+01   -1.2348003755700823E+01
H    1.1602339755912257E+02    9.1997622845590726E+01   -1.2340233763723090E+01
H    1.1485640662630165E+02    9.1616096765676531E+01   -1.3338925145482133E+01
O    8.7248889429599387E+01    5.5519628945940539E+01   -1.6178185224010559E+01
H    8.6647798790173965E+01    5.6024847349661989E+01   -1.5640806262121455E+01
H    8.7221276162519771E+01    5.6014020072588039E+01   -1.7021102881788302E+01
O    6.6367678358171929E+01   -7.1304997928235920E+01   -1.8384590995021934E+01
H    6.6471682653527068E+01   -7.1791628985729758E+01   -1.9247400231137053E+01
H    6.7023849386288305E+01   -7.1822445717408456E+01   -1.7801116624325946E+01
O    1.1357515761943338E+02    7.5386090895172188E+01   -1.6255240810179981E+01
H    1.1369845376312563E+02    7.5253206999386279E+01   -1.5256041769129492E+01
H    1.1318054016149624E+02    7.6344647547894496E+01   -1.6340335527130787E+01
O    2.1990748735996114E+01   -2.3227878260676627E+00   -2.3666761537161008E+01
H    2.2528900349798484E+01   -1.7376924898858146E+00   -2.4275447727644774E+01
H    2.2226567094404849E+01   -2.1633128349632860E+00   -2.2691178549699668E+01
O    9.4465697565004831E+01    9.3083644563105139E+00   -2.6070769125326869E+01