 # Version information for this restart file 
 # current date 2019-01-28 11:14:24.482
 # current working dir /scratch/snx3000/gtocci/gtocci/MEMBRANES/AIMD_US_IONS_GRA/potassium/aimd_us_pot/us_13
 # Program compiled at                             Thu Oct 11 21:49:41 CEST 2018
 # Program compiled on                                                  daint104
 # Program compiled for                                   CRAY_XC50-gfortran_gpu
 # Source code revision number                                     git:be74c20a5
 &GLOBAL
   PRINT_LEVEL  LOW
   PROJECT_NAME GRAS
   RUN_TYPE  MD
   WALLTIME 10200
 &END GLOBAL
 &MOTION
   &MD
     ENSEMBLE  NVT
     STEPS  100000
     TIMESTEP     9.9999999999999989E-01
     STEP_START_VAL  41507
     TIME_START_VAL     4.1506999999989537E+04
     ECONS_START_VAL    -8.3207176496207503E+03
     TEMPERATURE     3.0000000000000000E+02
     TEMP_KIND  T
     &BAROSTAT
       PRESSURE     1.0000000000000000E+00
       TIMECON     9.9999999999999986E+01
       VIRIAL  Z
     &END BAROSTAT
     &THERMOSTAT
       TYPE  NOSE
       REGION  GLOBAL
       &NOSE
         LENGTH  4
         TIMECON     9.9999999999999986E+01
         MTS  2
         &COORD
               1.3385318358760259E-01   -1.2406155453220428E+01    5.5301595428344523E+00   -5.7883100818118214E+00
         &END COORD
         &VELOCITY
              -3.7595122890574417E-06   -2.2630550926528028E-04    5.7963592114631092E-04   -7.2508812915449356E-05
         &END VELOCITY
         &MASS
               7.0145132684705392E+07    1.6237299232570693E+04    1.6237299232570693E+04    1.6237299232570693E+04
         &END MASS
         &FORCE
              -3.7902380997241504E-10    2.5485752046942806E-09   -7.2958303262872086E-09    2.7746778723302732E-07
         &END FORCE
       &END NOSE
     &END THERMOSTAT
     &AVERAGES  T
       &RESTART_AVERAGES
         ITIMES_START  1
         AVECPU     4.6288022245035677E+01
         AVEHUGONIOT     0.0000000000000000E+00
         AVETEMP_BARO     0.0000000000000000E+00
         AVEPOT    -8.3232857920487877E+03
         AVEKIN     2.0492989004101809E+00
         AVETEMP     2.9959103644671973E+02
         AVEKIN_QM     0.0000000000000000E+00
         AVETEMP_QM     0.0000000000000000E+00
         AVEVOL     2.1331414786628037E+05
         AVECELL_A     4.8437460238125091E+01
         AVECELL_B     4.6608961231944775E+01
         AVECELL_C     9.4486306644279452E+01
         AVEALPHA     9.0000000000000057E+01
         AVEBETA     9.0000000000000057E+01
         AVEGAMMA     9.0000000000000057E+01
         AVE_ECONS    -1.9685794425168743E+00
         AVE_PRESS     0.0000000000000000E+00
         AVE_PXX     0.0000000000000000E+00
       &END RESTART_AVERAGES
     &END AVERAGES
     &PRINT
       &TEMP_KIND  SILENT
       &END TEMP_KIND
     &END PRINT
   &END MD
   &FREE_ENERGY
     &METADYN
       MIN_DISP    -1.0000000000000000E+00
       OLD_HILL_NUMBER  0
       OLD_HILL_STEP  0
       DO_HILLS  F
       STEP_START_VAL  41507
       NHILLS_START_VAL  0
       &METAVAR
         SCALE     1.0000000000000000E+00
         COLVAR  1
       &END METAVAR
       &PRINT
         &COLVAR  SILENT
           COMMON_ITERATION_LEVELS  3
           &EACH
             MD  1
           &END EACH
         &END COLVAR
       &END PRINT
     &END METADYN
   &END FREE_ENERGY
   &CONSTRAINT
     &COLLECTIVE
       COLVAR  1
       INTERMOLECULAR  T
       &RESTRAINT
         K     4.4625385281452931E-04
       &END RESTRAINT
     &END COLLECTIVE
     &COLVAR_RESTART
           1.2283219863756681E+01
     &END COLVAR_RESTART
   &END CONSTRAINT
   &PRINT
     &TRAJECTORY  SILENT
       &EACH
         MD  1
       &END EACH
     &END TRAJECTORY
     &VELOCITIES  SILENT
       &EACH
         MD  1
       &END EACH
     &END VELOCITIES
     &FORCES  SILENT
       UNIT eV*angstrom^-1
       &EACH
         MD  1
       &END EACH
     &END FORCES
     &RESTART  SILENT
       &EACH
         MD  1
       &END EACH
     &END RESTART
     &RESTART_HISTORY  SILENT
       &EACH
         MD  100
       &END EACH
     &END RESTART_HISTORY
   &END PRINT
 &END MOTION
 &FORCE_EVAL
   METHOD  QS
   &DFT
     BASIS_SET_FILE_NAME /users/gtocci/scratch_daint_3000/data_cp2k//BASIS_MOLOPT
     POTENTIAL_FILE_NAME /users/gtocci/scratch_daint_3000/data_cp2k//GTH_POTENTIALS
     WFN_RESTART_FILE_NAME ./GRAS-RESTART.wfn
     CHARGE  1
     &SCF
       MAX_SCF  10
       EPS_SCF     9.9999999999999995E-07
       SCF_GUESS  RESTART
       &OT  T
         MINIMIZER  DIIS
         PRECONDITIONER  FULL_KINETIC
       &END OT
       &OUTER_SCF  T
         EPS_SCF     9.9999999999999995E-07
         MAX_SCF  30
       &END OUTER_SCF
       &PRINT
         &RESTART  SILENT
           ADD_LAST  NUMERIC
           &EACH
             QS_SCF  50
           &END EACH
         &END RESTART
       &END PRINT
     &END SCF
     &QS
       MAP_CONSISTENT  T
       EXTRAPOLATION  ASPC
       EXTRAPOLATION_ORDER  4
     &END QS
     &MGRID
       NGRIDS  5
       CUTOFF     4.6000000000000000E+02
     &END MGRID
     &XC
       DENSITY_CUTOFF     1.0000000000000000E-10
       GRADIENT_CUTOFF     1.0000000000000000E-10
       TAU_CUTOFF     1.0000000000000000E-10
       &XC_GRID
         XC_DERIV  SPLINE2_SMOOTH
       &END XC_GRID
       &XC_FUNCTIONAL  NO_SHORTCUT
         &LIBXC  T
           FUNCTIONAL XC_GGA_X_OPTB88_VDW
         &END LIBXC
         &VWN  T
         &END VWN
       &END XC_FUNCTIONAL
       &VDW_POTENTIAL
         POTENTIAL_TYPE  NON_LOCAL
         &NON_LOCAL
           TYPE  DRSLL
           VERBOSE_OUTPUT  T
           KERNEL_FILE_NAME /users/gtocci/scratch_daint_3000/data_cp2k//vdW_kernel_table.dat
         &END NON_LOCAL
       &END VDW_POTENTIAL
     &END XC
     &REAL_TIME_PROPAGATION
       INITIAL_WFN  SCF_WFN
     &END REAL_TIME_PROPAGATION
     &PRINT
       &MULLIKEN  SILENT
         FILENAME =GRAS.mulliken
       &END MULLIKEN
     &END PRINT
   &END DFT
   &SUBSYS
     &CELL
       A     2.5632000000000001E+01    0.0000000000000000E+00    0.0000000000000000E+00
       B     0.0000000000000000E+00    2.4664400000000022E+01    0.0000000000000000E+00
       C     0.0000000000000000E+00    0.0000000000000000E+00    5.0000000000000028E+01
       MULTIPLE_UNIT_CELL  1 1 1
     &END CELL
     &COORD
C    2.1637291958938718E+01    4.4754662020264311E+00   -3.1460277689844114E+00
C    2.3057342793700887E+01    4.4846077462798473E+00   -3.0411783585000594E+00
C    2.3761979893479872E+01    5.7184505783639841E+00   -3.0417930825940465E+00
C    2.5202633514436602E+01    5.7471803318959367E+00   -2.9331495060911874E+00
C    2.1635524575521291E+01    6.9863582086401852E+00   -3.1719374110401928E+00
C    2.3063241477364738E+01    6.9682091502502654E+00   -3.0159472794942093E+00
C    2.3784859237491045E+01    8.2060335390289421E+00   -2.8420997695620827E+00
C    2.5197190163685192E+01    8.1952382315590082E+00   -2.6695842969482051E+00
C    2.1700201371067582E+01    9.4063312555187348E+00   -3.0418020328367303E+00
C    2.3119420406248995E+01    9.4340257890762373E+00   -2.8710399537790821E+00
C    2.3772764784620463E+01    1.0659047120085255E+01   -2.6232482955874330E+00
C    2.5216748095305398E+01    1.0631293343641177E+01   -2.5106166737525166E+00
C    2.1658539863639970E+01    1.1877553908487062E+01   -2.7620204778187074E+00
C    2.3070772693456991E+01    1.1887334894583384E+01   -2.6830009409455067E+00
C    2.3797620204493224E+01    1.3139834341729728E+01   -2.5857917295063531E+00
C    2.5238625836293217E+01    1.3097860618794114E+01   -2.4448024069082384E+00
C    2.1636055918039347E+01    1.4331662626446562E+01   -2.7083145841848633E+00
C    2.3032105238774349E+01    1.4366314999003764E+01   -2.7060266341711996E+00
C    2.3779609931803968E+01    3.2543144527599477E+00   -3.0541255981105797E+00
C    2.5229547154975844E+01    3.2684838016033262E+00   -2.9833285850628148E+00
C    2.5937472456298057E+01    4.5025702985716682E+00   -2.9699303856931278E+00
C    2.7350000885146848E+01    4.4835387754738578E+00   -2.9863763567819759E+00
C    2.8067114543144449E+01    5.7391164954334428E+00   -2.9700344477967251E+00
C    2.9495119816681942E+01    5.7102330257901119E+00   -3.0312785477678061E+00
C    2.5917830588707275E+01    6.9909749074676499E+00   -2.7925110320409372E+00
C    2.7369364885963176E+01    6.9988920066823948E+00   -2.8263229844457158E+00
C    2.8100013584852888E+01    8.1904923532726972E+00   -2.7702626263709313E+00
C    2.9511658614204894E+01    8.1802822374338735E+00   -2.8250531651844155E+00
C    2.5936704738510361E+01    9.4203219397490052E+00   -2.5517764556884086E+00
C    2.7410237248950949E+01    9.4145674489798878E+00   -2.6378244303903595E+00
C    2.8117309631360307E+01    1.0642555288767840E+01   -2.6785892084437450E+00
C    2.9574194219862669E+01    1.0658807749639227E+01   -2.6898448367506940E+00
C    2.5928791908791936E+01    1.1847003019651520E+01   -2.4759355802286462E+00
C    2.7361402958998070E+01    1.1832110425457529E+01   -2.5212660498123025E+00
C    2.8089553554092344E+01    1.3085609487901086E+01   -2.5603080663393571E+00
C    2.9518217732946404E+01    1.3082426659482467E+01   -2.6524329628565368E+00
C    2.5942655184491450E+01    1.4328711401259513E+01   -2.4988026859899723E+00
C    2.7368717300810658E+01    1.4323531693590514E+01   -2.6456757428892606E+00
C    2.8076959450572279E+01    3.2331829851163163E+00   -3.1327028468714579E+00
C    2.9516369755634134E+01    3.2238127595067976E+00   -3.2179029746237684E+00
C    3.0231378572479208E+01    4.4402390712522104E+00   -3.1957315982035102E+00
C    3.1638804945209838E+01    4.4649246883737730E+00   -3.2779820502369077E+00
C    3.2351484928866618E+01    5.7039421654641584E+00   -3.1590059990730546E+00
C    3.3790838589580090E+01    5.7121398235276635E+00   -3.1236538240787115E+00
C    3.0230618758491023E+01    6.9668832522339876E+00   -2.9328897526889350E+00
C    3.1650759799108727E+01    6.9600146430583401E+00   -2.9985042328468912E+00
C    3.2349044092970146E+01    8.1885048557808346E+00   -2.9747413907723552E+00
C    3.3783254523415323E+01    8.2034467870281880E+00   -3.0047315083689479E+00
C    3.0231593677686028E+01    9.3957627230912681E+00   -2.8050243927702838E+00
C    3.1637119356903323E+01    9.3934474668537966E+00   -2.9174045095326080E+00
C    3.2315778463861250E+01    1.0667847735732328E+01   -2.9795073178721285E+00
C    3.3723521249676374E+01    1.0650743626720411E+01   -3.0603681429480702E+00
C    3.0234552623280411E+01    1.1877846906296378E+01   -2.6895266308807955E+00
C    3.1632055633395385E+01    1.1890852038613520E+01   -2.8862714575901354E+00
C    3.2296482981762175E+01    1.3125985988131115E+01   -2.9903823685961570E+00
C    3.3734374188409312E+01    1.3128949583924385E+01   -3.0939448131751912E+00
C    3.0196991259614190E+01    1.4355279213314809E+01   -2.7933419460386455E+00
C    3.1615881122554551E+01    1.4349533156344812E+01   -2.8899554170088657E+00
C    3.2365186281201289E+01    3.2399765124243931E+00   -3.2658356455221438E+00
C    3.3788988171688040E+01    3.2735710275409047E+00   -3.1729619744151325E+00
C    2.1649670971633292E+01    1.6839533352801482E+01   -2.8673782747715442E+00
C    2.3080293359184278E+01    1.6822366761351191E+01   -2.8064585630143180E+00
C    2.3812639263768865E+01    1.8034130400196432E+01   -2.8336365506021322E+00
C    2.5222827408500788E+01    1.8059031398187816E+01   -2.8346435534813250E+00
C    2.1656086093994116E+01    1.9305786286522356E+01   -2.9344947482025994E+00
C    2.3074553002022352E+01    1.9276645704198380E+01   -2.9713275088855347E+00
C    2.3765310846794211E+01    2.0522067307917364E+01   -3.0431440988499099E+00
C    2.5197246090702400E+01    2.0541881223998463E+01   -3.1004193056787424E+00
C    2.1614179072564617E+01    2.1716289869326761E+01   -3.0847449836549821E+00
C    2.3084595685009038E+01    2.1762283566300514E+01   -3.0767182693834978E+00
C    2.3736929434043013E+01    2.3009814724407693E+01   -3.0943822175187288E+00
C    2.5176850827547099E+01    2.3039501198650722E+01   -3.1119506125918317E+00
C    2.1622849152913822E+01    2.4265977753549834E+01   -3.1581170217546832E+00
C    2.3029929807069475E+01    2.4253713899282253E+01   -3.0857688203600584E+00
C    2.3751632193782125E+01    2.5447280994490640E+01   -2.9680462821198370E+00
C    2.5194506229821386E+01    2.5447833886160669E+01   -2.9552129612222675E+00
C    2.1643711198588132E+01    2.6688393251997201E+01   -3.0988116977792042E+00
C    2.3078064792212967E+01    2.6694288698736965E+01   -3.0391905605424498E+00
C    2.3799925406212655E+01    1.5592217792773310E+01   -2.7460358256274255E+00
C    2.5216017360010092E+01    1.5584027188924471E+01   -2.6541814946223159E+00
C    2.5930090270087430E+01    1.6815640595381613E+01   -2.7808823190552370E+00
C    2.7383599516217330E+01    1.6779145254612398E+01   -2.8154905305657754E+00
C    2.8052172148254019E+01    1.8046478521868483E+01   -2.9276407362398427E+00
C    2.9483833258012737E+01    1.8059805546825700E+01   -2.9122085983704684E+00
C    2.5893112721111091E+01    1.9316327140102633E+01   -2.9711607346935058E+00
C    2.7322116089911660E+01    1.9326774101231464E+01   -2.9840808331603630E+00
C    2.7990567431975496E+01    2.0581388865154352E+01   -3.0337486636601452E+00
C    2.9452842831208386E+01    2.0537430672568679E+01   -3.0524957507831592E+00
C    2.5870347813137709E+01    2.1807732116715343E+01   -3.1822783503696561E+00
C    2.7284528644590640E+01    2.1785351102164643E+01   -3.1069313384138653E+00
C    2.8025278180198903E+01    2.2980951436232594E+01   -3.1451732484439701E+00
C    2.9458754358074071E+01    2.3009833706946605E+01   -3.1571487781321075E+00
C    2.5893117902760487E+01    2.4264677728921651E+01   -3.0459120471540579E+00
C    2.7346487325978426E+01    2.4225065663839928E+01   -3.1027944359513744E+00
C    2.8108342375275562E+01    2.5434397941828632E+01   -3.1807961536731262E+00
C    2.9523559751803834E+01    2.5424460433130836E+01   -3.2560135985213696E+00
C    2.5935515187605098E+01    2.6666819512759716E+01   -2.9595760902960717E+00
C    2.7383633587464736E+01    2.6688055029719219E+01   -3.0760073524260512E+00
C    2.8088002454598680E+01    1.5546777334153310E+01   -2.7911619723436876E+00
C    2.9491382240564032E+01    1.5565178118875892E+01   -2.8745478363832051E+00
C    3.0187835652327795E+01    1.6830606379685523E+01   -2.8382434396055185E+00
C    3.1623929336479101E+01    1.6819965959075457E+01   -2.8354555993062913E+00
C    3.2314053434160591E+01    1.8070191053174828E+01   -2.8653872496673949E+00
C    3.3733099519433857E+01    1.8084186518375489E+01   -2.9171954320311384E+00
C    3.0175632439109329E+01    1.9302340957895481E+01   -3.0217963393728882E+00
C    3.1618236251185067E+01    1.9281241078053434E+01   -2.9786649496662641E+00
C    3.2327461493682307E+01    2.0490158255792004E+01   -3.0075542406532438E+00
C    3.3740693516210754E+01    2.0500894916649390E+01   -3.0056517360742241E+00
C    3.0191108164396017E+01    2.1738896261565703E+01   -3.0761065839957396E+00
C    3.1607702578199046E+01    2.1733512661349177E+01   -3.1149741849424832E+00
C    3.2313860665528132E+01    2.2990121194108593E+01   -3.0391996819143827E+00
C    3.3720756890648872E+01    2.3002141972394288E+01   -3.0433868707925091E+00
C    3.0215484443361635E+01    2.4200112780552587E+01   -3.2103858340230267E+00
C    3.1654829354952959E+01    2.4199175116343980E+01   -3.1526419432530366E+00
C    3.2380049514968604E+01    2.5446782242118786E+01   -3.2043878357875788E+00
C    3.3765362591721889E+01    2.5461587158876139E+01   -3.1417464468712311E+00
C    3.0240992601893801E+01    2.6648236361733936E+01   -3.2807814418173686E+00
C    3.1665779985543335E+01    2.6684418858649696E+01   -3.2502708962441136E+00
C    3.2314912695206424E+01    1.5576008090501517E+01   -2.8910286961633669E+00
C    3.3730741776481011E+01    1.5570204284031600E+01   -2.9592895582306862E+00
C    3.4486855120348530E+01    4.4824196626348076E+00   -3.1437665738041058E+00
C    3.5919852629872629E+01    4.4889358333619969E+00   -3.0961695623340431E+00
C    3.6650451006861786E+01    5.6930304845640700E+00   -2.9856787864008103E+00
C    3.8060266368657288E+01    5.7128098842467425E+00   -2.9922165838584469E+00
C    3.4512383261773664E+01    6.9450537126856711E+00   -3.0277398216902514E+00
C    3.5932813594872528E+01    6.9351622092326801E+00   -2.9866043231901052E+00
C    3.6583612616939710E+01    8.1837240372840583E+00   -2.9940011760718273E+00
C    3.8027648836069702E+01    8.1959550201023621E+00   -2.9826578466676721E+00
C    3.4482397994868279E+01    9.4253785259434011E+00   -3.0835924796343521E+00
C    3.5885346186933063E+01    9.4181532414711651E+00   -3.0988438268266774E+00
C    3.6585707318777544E+01    1.0661691771684342E+01   -3.0395074488023881E+00
C    3.7988336661492546E+01    1.0658692209699222E+01   -2.8887092427447030E+00
C    3.4429901740016582E+01    1.1911142870514277E+01   -3.1335746163093319E+00
C    3.5863765112507409E+01    1.1871369434958902E+01   -3.1084226281868177E+00
C    3.6594806332624941E+01    1.3107754068183199E+01   -2.9683723830694984E+00
C    3.8031736837842558E+01    1.3119376571452060E+01   -2.9094286458935956E+00
C    3.4451507678180555E+01    1.4359269632892882E+01   -3.0116763938118094E+00
C    3.5881166976803918E+01    1.4346738176573293E+01   -2.9427788969412232E+00
C    3.6621137191476564E+01    3.2411160953094322E+00   -3.0629040715565461E+00
C    3.8019561771439221E+01    3.2092338123727808E+00   -2.9591259634689879E+00
C    3.8725268724388698E+01    4.4676148414784285E+00   -2.9461096135096549E+00
C    4.0146382325185137E+01    4.5126856985373776E+00   -2.9058153514796317E+00
C    4.0864985969687623E+01    5.7717720993975021E+00   -3.0343016754768302E+00
C    4.2258699081496786E+01    5.7774880123081509E+00   -3.2497273801753850E+00
C    3.8772398565052605E+01    6.9835328410932558E+00   -3.0326986520673951E+00
C    4.0175214870515660E+01    6.9872772733651942E+00   -3.0837641298797211E+00
C    4.0856969194660067E+01    8.2146808156656999E+00   -3.1953687793653796E+00
C    4.2292221586152927E+01    8.2388345990380092E+00   -3.3102745622859016E+00
C    3.8726968968284098E+01    9.4354832768453942E+00   -2.9709592945235523E+00
C    4.0159208336417734E+01    9.4181226710632053E+00   -3.0505362606121440E+00
C    4.0935836529995846E+01    1.0657705799623626E+01   -2.9862048840948114E+00
C    4.2338272982751825E+01    1.0662823893619365E+01   -3.1747277549946737E+00
C    3.8744110545125167E+01    1.1910163483610395E+01   -2.8880192140124028E+00
C    4.0177625093917726E+01    1.1871436413700879E+01   -2.9020806233875724E+00
C    4.0886831350366805E+01    1.3132195338616476E+01   -2.7985809005413000E+00
C    4.2306403108102558E+01    1.3110005798077875E+01   -2.8660601819152021E+00
C    3.8754471062915641E+01    1.4376990913489760E+01   -2.9090852825432170E+00
C    4.0175441991124977E+01    1.4420754663566401E+01   -2.8541281472911577E+00
C    4.0897449140392169E+01    3.2566620022243526E+00   -2.9531787923949020E+00
C    4.2285280798246433E+01    3.3027350176329500E+00   -3.1716878932897741E+00
C    4.2975136766083743E+01    4.5175336692975447E+00   -3.2839814181389770E+00
C    4.4420290114078647E+01    4.5245035550626076E+00   -3.2477266438423595E+00
C    4.5132526488725233E+01    5.8275965204943789E+00   -3.2689678265578608E+00
C    4.6555419296852364E+01    5.7536643967520078E+00   -3.1955859644115665E+00
C    4.2980780768297592E+01    7.0170520630013407E+00   -3.2846435751229124E+00
C    4.4424353126307686E+01    7.0203583234259144E+00   -3.3001773324433632E+00
C    4.5158788858725707E+01    8.2512868560914754E+00   -3.2490993909160508E+00
C    4.6584724986633638E+01    8.2066079975433226E+00   -3.2010796980893863E+00
C    4.3034440956828057E+01    9.4516824569866760E+00   -3.2734058498039080E+00
C    4.4470368822375484E+01    9.4443152000907915E+00   -3.2187440734415711E+00
C    4.5147546398788904E+01    1.0677745121400545E+01   -3.0731290602648134E+00
C    4.6582355554062929E+01    1.0649851695248330E+01   -2.9566306358368308E+00
C    4.3022853928013426E+01    1.1884552753684563E+01   -3.0361505179539470E+00
C    4.4448437525404039E+01    1.1934108273241630E+01   -3.0073378727564699E+00
C    4.5138489388806207E+01    1.3166672719270766E+01   -2.8762723304806683E+00
C    4.6575287810432144E+01    1.3099214499286624E+01   -2.7522581989709920E+00
C    4.2994952462859096E+01    1.4362574741252885E+01   -2.7478460524399639E+00
C    4.4419176700791233E+01    1.4369631936414493E+01   -2.7355922224251206E+00
C    4.5126847148892111E+01    3.3008512686933105E+00   -3.2261607278211750E+00
C    4.6541045503228112E+01    3.2634123931983283E+00   -3.1120666420877310E+00
C    3.4448952050369002E+01    1.6801285573536482E+01   -2.9109645765815344E+00
C    3.5858532446727018E+01    1.6822055448038594E+01   -3.0261085009774593E+00
C    3.6602199703358821E+01    1.8094459536754190E+01   -3.0632194226635057E+00
C    3.8035183601114412E+01    1.8045731918642240E+01   -3.0562983171586953E+00
C    3.4465135681876220E+01    1.9326763953509225E+01   -3.0322413970784741E+00
C    3.5911135015575603E+01    1.9313491315117314E+01   -3.1117074029420970E+00
C    3.6600110940907491E+01    2.0540127836644494E+01   -3.1773148554798958E+00
C    3.8011718372806740E+01    2.0528480421541662E+01   -3.1226500795589995E+00
C    3.4453742416620749E+01    2.1782500738427835E+01   -3.0733821823629781E+00
C    3.5852273333676528E+01    2.1783347637283629E+01   -3.1539060800427525E+00
C    3.6581881089878451E+01    2.2979724921187788E+01   -3.1084078037399165E+00
C    3.7996236602058651E+01    2.2983462635415187E+01   -3.0646526260668012E+00
C    3.4458469266380298E+01    2.4239184747725577E+01   -3.0549312433782974E+00
C    3.5912758520844676E+01    2.4215717162108060E+01   -3.0655217213534667E+00
C    3.6615150570600157E+01    2.5438750048027913E+01   -3.0799442028578223E+00
C    3.8061967294605736E+01    2.5445725821234440E+01   -2.9615270326069751E+00
C    3.4498550785151622E+01    2.6728015778674990E+01   -3.2201924564086841E+00
C    3.5927152707336695E+01    2.6691536317922377E+01   -3.1486505555652919E+00
C    3.6571766765560206E+01    1.5612321166546888E+01   -2.9709790404921401E+00
C    3.8014423231715398E+01    1.5577463686178969E+01   -2.9869857737841485E+00
C    3.8745834048355754E+01    1.6835345685682025E+01   -3.0113025523283730E+00
C    4.0169624763554545E+01    1.6844671041847747E+01   -3.0110208689559426E+00
C    4.0882810853796414E+01    1.8080290874565460E+01   -2.9167548038922519E+00
C    4.2296304250058753E+01    1.8112731008391883E+01   -2.8315658678919613E+00
C    3.8727214527091341E+01    1.9288831064657213E+01   -3.0143633770482730E+00
C    4.0152571836576236E+01    1.9276069527985207E+01   -2.9056942976872544E+00
C    4.0845785267320402E+01    2.0509547426844591E+01   -2.8419944051824975E+00
C    4.2278777942493527E+01    2.0560545121468817E+01   -2.8514100336261023E+00
C    3.8739308639976159E+01    2.1753867526118068E+01   -3.1088048103825656E+00
C    4.0164090030419423E+01    2.1759989321711348E+01   -2.9163904745914859E+00
C    4.0844867616947496E+01    2.3002052023117759E+01   -2.9168204739528552E+00
C    4.2279752152060375E+01    2.3033556236907916E+01   -2.9235097862729567E+00
C    3.8762531692001637E+01    2.4188075707976413E+01   -2.9120784238339308E+00
C    4.0174489821337794E+01    2.4243346663647387E+01   -2.8875471390485483E+00
C    4.0890604821948564E+01    2.5474359978017144E+01   -2.9174756086719538E+00
C    4.2315342321693606E+01    2.5498017482073852E+01   -3.0495717254138213E+00
C    3.8756441745227008E+01    2.6658281554600222E+01   -2.9646089235203879E+00
C    4.0188230760442842E+01    2.6691952025230631E+01   -2.8629053049822688E+00
C    4.0860917762020378E+01    1.5632199017797243E+01   -2.8886620823952063E+00
C    4.2285610341657367E+01    1.5625090379845616E+01   -2.7541370237489602E+00
C    4.3021553237720937E+01    1.6876665707243337E+01   -2.7994327436715976E+00
C    4.4438221215829188E+01    1.6851043888625725E+01   -2.7294714586491851E+00
C    4.5155781185660139E+01    1.8064548801459924E+01   -2.8613284224243496E+00
C    4.6576998890164290E+01    1.8073229075442754E+01   -2.8775149351871625E+00
C    4.2995058541053616E+01    1.9305543482335370E+01   -2.8179179138212977E+00
C    4.4415779827836559E+01    1.9290096431075888E+01   -2.8226344997534896E+00
C    4.5119207097577970E+01    2.0541692140470872E+01   -2.9796020049543261E+00
C    4.6542861032077717E+01    2.0520822172408554E+01   -2.9695390626141638E+00
C    4.2991662046263933E+01    2.1801617838809729E+01   -2.8813420569213992E+00
C    4.4427503156506866E+01    2.1780768643445871E+01   -2.9683253566940508E+00
C    4.5139108194430278E+01    2.3024994680794755E+01   -3.0301785069144636E+00
C    4.6551095690767212E+01    2.3005955566969366E+01   -3.1323802305565942E+00
C    4.3030384352222818E+01    2.4253737982184788E+01   -3.0065494384575762E+00
C    4.4436615746575576E+01    2.4290360017031610E+01   -3.1611406605617534E+00
C    4.5154674490428611E+01    2.5498786015277144E+01   -3.3565774662607328E+00
C    4.6537328758360346E+01    2.5489297853811856E+01   -3.2266520687673919E+00
C    4.2993185103354996E+01    2.6740281725356262E+01   -3.2117291945503754E+00
C    4.4420783205250352E+01    2.6733202167275721E+01   -3.3342482314302635E+00
C    4.5122480608501718E+01    1.5594448509138800E+01   -2.7174269959484141E+00
C    4.6567237304697301E+01    1.5607328168605600E+01   -2.7564760164843736E+00
O    3.4256074630432738E+02    1.6688119163319809E+02    8.5310935330962803E+00
H    3.4306241127701060E+02    1.6623967518122072E+02    8.0299794618539782E+00
H    3.4244228225622516E+02    1.6676354211485386E+02    9.5208160284525238E+00
O    3.7442702991726890E+02    1.0391906393956400E+02    3.2963707851733717E+00
H    3.7392778375590768E+02    1.0306677623898445E+02    3.3216467921704744E+00
H    3.7411182547512425E+02    1.0441766184629140E+02    4.0403944360864097E+00
O    3.4992477222634005E+02    3.0696641169063912E+02    1.0542809270528309E+01
H    3.4984533008830982E+02    3.0713267541970805E+02    9.5948104640568541E+00
H    3.5021064219152873E+02    3.0787162740275755E+02    1.0888568757439055E+01
O    3.4918726498575398E+02    1.4352270737797375E+02    8.8664826770128240E+00
H    3.4820386291323280E+02    1.4344003169384155E+02    8.7199861125397256E+00
H    3.4954265124339275E+02    1.4272194286959402E+02    8.4130468016737474E+00
O    3.3572287758737457E+02    1.8319233681669098E+02    6.0326323253476586E+00
H    3.3516854342270557E+02    1.8369371048583150E+02    5.3451507770142079E+00
H    3.3559008762823288E+02    1.8223363196835822E+02    5.7429982139513109E+00
O    4.2187065498914711E+02    1.1039794750970201E+02    3.2038743510341652E+00
H    4.2135088670661412E+02    1.1036262692977552E+02    2.3494383046545053E+00
H    4.2140799565423544E+02    1.1118855999238725E+02    3.6410458795262879E+00
O    3.5786411369406613E+02    2.0433366130136963E+02    8.5775009854784631E-02
H    3.5753454132333854E+02    2.0393529287814394E+02    8.9576929323064791E-01
H    3.5822176202828797E+02    2.0522096621367584E+02    2.6678421024491772E-01
O    3.3547933336181956E+02    6.8626698450430453E+01    1.4990490282023027E+01
H    3.3642636581187332E+02    6.8382729575208856E+01    1.4819877337480726E+01
H    3.3505151431574410E+02    6.7948542610330037E+01    1.5527215304404319E+01
O    1.5793118752337872E+02    2.1571034300789901E+02    1.1994393733979081E+01
H    1.5827299645238654E+02    2.1597773500055703E+02    1.2872444429947665E+01
H    1.5692793004127341E+02    2.1573183583378341E+02    1.2163963412636587E+01
O    3.1792652973540083E+02    1.9341187877820775E+02    1.1210403667994143E+01
H    3.1803298722615347E+02    1.9436486356893460E+02    1.1068427970628127E+01
H    3.1873016462388318E+02    1.9291882834022257E+02    1.0888650241979368E+01
O    3.3159166844440085E+02    1.7739672519476309E+02    1.1036781130551311E+01
H    3.3138581715829224E+02    1.7835768778722539E+02    1.1443760432176830E+01
H    3.3105504913716084E+02    1.7737649314676767E+02    1.0229245719958216E+01
O    2.4254349758849852E+02    2.2183528686645576E+02    2.7536215041219032E+00
H    2.4276811187562978E+02    2.2220699058455435E+02    1.8442169523718361E+00
H    2.4246065793718796E+02    2.2087299243825348E+02    2.6302315256417352E+00
O    3.6064375907528284E+02    1.2366949725883988E+02    4.1328162329498328E+00
H    3.6035083752633147E+02    1.2433184802976172E+02    3.4787604197226387E+00
H    3.5993550868188282E+02    1.2311097199193799E+02    4.2125977308418872E+00
O    1.9875262841050994E+02    2.3430912508716194E+01    1.1259129035503763E+01
H    1.9921074481874331E+02    2.4065329382600375E+01    1.0636566123821273E+01
H    1.9807185371607267E+02    2.2943082715186449E+01    1.0733902519570595E+01
O    2.9113024034057014E+02    2.6767637510521138E+02    5.3528763012630316E+00
H    2.9048420842803358E+02    2.6706912910124919E+02    4.9204636692576615E+00
H    2.9193022406281017E+02    2.6701939346587727E+02    5.4655161537300874E+00
O    3.0856306871044825E+02    2.5162982623090616E+02    3.4025238664694495E+00
H    3.0914680310854806E+02    2.5170800230141978E+02    4.1614717819408318E+00
H    3.0889757220877448E+02    2.5213992414091112E+02    2.5850710854280572E+00
O    2.7515977659525441E+02    1.9340294561077906E+02    5.1202941882687467E+00
H    2.7604044580603136E+02    1.9386069290723384E+02    5.0045325880486935E+00
H    2.7536056364323065E+02    1.9264341904548525E+02    5.7597857139248720E+00
O    3.4345445757215310E+02    1.2542254334107128E+02    3.1908992927349211E+00
H    3.4367826580910156E+02    1.2592892846987743E+02    2.4191174030051075E+00
H    3.4396950266136605E+02    1.2456099883977633E+02    3.0600974375441368E+00
O    2.8808365113462156E+02    1.6325608401563247E+02    3.3063344261140535E+00
H    2.8769752439435177E+02    1.6338339772175897E+02    2.4218567568193707E+00