 # Version information for this restart file 
 # current date 2020-04-18 01:31:56.573
 # current working dir /scratch/snx3000/gtocci/gtocci/MEMBRANES/AIMD_US_IONS_GRA/us_aimd_new/us_5
 # Program compiled at                              Fri Nov 22 15:19:42 CET 2019
 # Program compiled on                                                  daint102
 # Program compiled for                                   CRAY_XC50-gfortran_gpu
 # Source code revision number                                       git:a698b45
 &GLOBAL
   PRINT_LEVEL  LOW
   PROJECT_NAME GRAS
   RUN_TYPE  MD
   WALLTIME 86400
 &END GLOBAL
 &MOTION
   &MD
     ENSEMBLE  NVT
     STEPS  2000
     TIMESTEP     9.9999999999999989E-01
     STEP_START_VAL  79046
     TIME_START_VAL     7.9045999999931810E+04
     ECONS_START_VAL    -8.3018917726424661E+03
     TEMPERATURE     3.0000000000000000E+02
     TEMP_KIND  T
     &BAROSTAT
       PRESSURE     1.0000000000000000E+00
       TIMECON     9.9999999999999986E+01
       VIRIAL  Z
     &END BAROSTAT
     &THERMOSTAT
       TYPE  NOSE
       REGION  GLOBAL
       &NOSE
         LENGTH  4
         TIMECON     9.9999999999999986E+01
         MTS  2
         &COORD
               5.8614677292598569E-03   -5.0939377979523883E+01    5.6274220756795529E+01    1.4048045573949761E+00
         &END COORD
         &VELOCITY
              -1.7830220546997276E-06   -2.5373255933610136E-05    1.6878287309029846E-04    7.8564686213558390E-05
         &END VELOCITY
         &MASS
               7.0145132684705392E+07    1.6237299232570693E+04    1.6237299232570693E+04    1.6237299232570693E+04
         &END MASS
         &FORCE
               6.0018136783476881E-10   -4.4776009612707909E-08   -5.7866211733432582E-08   -3.0022355601489272E-08
         &END FORCE
       &END NOSE
     &END THERMOSTAT
     &AVERAGES  T
       &RESTART_AVERAGES
         ITIMES_START  1
         AVECPU     3.0828938870352761E+01
         AVEHUGONIOT     0.0000000000000000E+00
         AVETEMP_BARO     0.0000000000000000E+00
         AVEPOT    -8.3067153756879688E+03
         AVEKIN     2.0534392134403192E+00
         AVETEMP     3.0018552613645846E+02
         AVEKIN_QM     0.0000000000000000E+00
         AVETEMP_QM     0.0000000000000000E+00
         AVEVOL     2.1331414786626375E+05
         AVECELL_A     4.8437460238121901E+01
         AVECELL_B     4.6608961231948342E+01
         AVECELL_C     9.4486306644281314E+01
         AVEALPHA     9.0000000000000028E+01
         AVEBETA     9.0000000000000028E+01
         AVEGAMMA     9.0000000000000028E+01
         AVE_ECONS    -5.8016107282441908E+02
         AVE_PRESS     0.0000000000000000E+00
         AVE_PXX     0.0000000000000000E+00
       &END RESTART_AVERAGES
     &END AVERAGES
     &PRINT
       &TEMP_KIND  SILENT
       &END TEMP_KIND
     &END PRINT
   &END MD
   &FREE_ENERGY
     &METADYN
       MIN_DISP    -1.0000000000000000E+00
       OLD_HILL_NUMBER  0
       OLD_HILL_STEP  0
       DO_HILLS  F
       STEP_START_VAL  79046
       NHILLS_START_VAL  0
       &METAVAR
         SCALE     1.0000000000000000E+00
         COLVAR  1
       &END METAVAR
       &PRINT
         &COLVAR  SILENT
           COMMON_ITERATION_LEVELS  3
           &EACH
             MD  1
           &END EACH
         &END COLVAR
       &END PRINT
     &END METADYN
   &END FREE_ENERGY
   &CONSTRAINT
     &COLLECTIVE
       COLVAR  1
       INTERMOLECULAR  T
       &RESTRAINT
         K     4.4625385281452931E-04
       &END RESTRAINT
     &END COLLECTIVE
     &COLVAR_RESTART
           4.7243153322141085E+00
     &END COLVAR_RESTART
   &END CONSTRAINT
   &PRINT
     &TRAJECTORY  SILENT
       &EACH
         MD  1
       &END EACH
     &END TRAJECTORY
     &VELOCITIES  SILENT
       &EACH
         MD  1
       &END EACH
     &END VELOCITIES
     &FORCES  SILENT
       UNIT eV*angstrom^-1
       &EACH
         MD  1
       &END EACH
     &END FORCES
     &RESTART  SILENT
       &EACH
         MD  1
       &END EACH
     &END RESTART
     &RESTART_HISTORY  SILENT
       &EACH
         MD  100
       &END EACH
     &END RESTART_HISTORY
   &END PRINT
 &END MOTION
 &FORCE_EVAL
   METHOD  QS
   &DFT
     BASIS_SET_FILE_NAME /users/gtocci/scratch_daint_3000/data_cp2k//BASIS_MOLOPT
     POTENTIAL_FILE_NAME /users/gtocci/scratch_daint_3000/data_cp2k//GTH_POTENTIALS
     WFN_RESTART_FILE_NAME ./GRAS-RESTART.wfn
     CHARGE  -1
     &SCF
       MAX_SCF  10
       EPS_SCF     9.9999999999999995E-07
       SCF_GUESS  RESTART
       &OT  T
         MINIMIZER  DIIS
         PRECONDITIONER  FULL_KINETIC
       &END OT
       &OUTER_SCF  T
         EPS_SCF     9.9999999999999995E-07
         MAX_SCF  30
       &END OUTER_SCF
       &PRINT
         &RESTART  SILENT
           ADD_LAST  NUMERIC
           &EACH
             QS_SCF  50
           &END EACH
         &END RESTART
       &END PRINT
     &END SCF
     &QS
       MAP_CONSISTENT  T
       EXTRAPOLATION  ASPC
       EXTRAPOLATION_ORDER  4
     &END QS
     &MGRID
       NGRIDS  5
       CUTOFF     4.6000000000000000E+02
     &END MGRID
     &XC
       DENSITY_CUTOFF     1.0000000000000000E-10
       GRADIENT_CUTOFF     1.0000000000000000E-10
       TAU_CUTOFF     1.0000000000000000E-10
       &XC_GRID
         XC_DERIV  SPLINE2_SMOOTH
       &END XC_GRID
       &XC_FUNCTIONAL  NO_SHORTCUT
         &LIBXC  T
           FUNCTIONAL XC_GGA_X_OPTB88_VDW
         &END LIBXC
         &VWN  T
         &END VWN
       &END XC_FUNCTIONAL
       &VDW_POTENTIAL
         POTENTIAL_TYPE  NON_LOCAL
         &NON_LOCAL
           TYPE  DRSLL
           VERBOSE_OUTPUT  T
           KERNEL_FILE_NAME /users/gtocci/scratch_daint_3000/data_cp2k//vdW_kernel_table.dat
         &END NON_LOCAL
       &END VDW_POTENTIAL
     &END XC
     &REAL_TIME_PROPAGATION
       INITIAL_WFN  SCF_WFN
     &END REAL_TIME_PROPAGATION
     &PRINT
       &MULLIKEN  SILENT
         FILENAME =GRAS.mulliken
       &END MULLIKEN
     &END PRINT
   &END DFT
   &SUBSYS
     &CELL
       A     2.5632000000000001E+01    0.0000000000000000E+00    0.0000000000000000E+00
       B     0.0000000000000000E+00    2.4664400000000022E+01    0.0000000000000000E+00
       C     0.0000000000000000E+00    0.0000000000000000E+00    5.0000000000000028E+01
       MULTIPLE_UNIT_CELL  1 1 1
     &END CELL
     &COORD
C    2.5371916875403027E+01    1.7175340989546971E+01   -2.8070554531542213E+00
C    2.6787463634474975E+01    1.7165182920553168E+01   -2.5472389948239234E+00
C    2.7484293920265369E+01    1.8409288255433491E+01   -2.4504250227258013E+00
C    2.8872385074543306E+01    1.8418620220399777E+01   -2.3122307213965305E+00
C    2.5388659595885013E+01    1.9629372324250841E+01   -2.7975676052000917E+00
C    2.6769946687332165E+01    1.9630578737916075E+01   -2.5927485340775100E+00
C    2.7458325208428437E+01    2.0872093433830212E+01   -2.4697258176509607E+00
C    2.8822509227439969E+01    2.0921560750624071E+01   -2.4638024438682105E+00
C    2.5346660943984148E+01    2.2088528433141832E+01   -2.6389426460743315E+00
C    2.6726257583588946E+01    2.2100770812200654E+01   -2.5584082024910746E+00
C    2.7441225010602032E+01    2.3327256793134115E+01   -2.5581686982906087E+00
C    2.8886819742023917E+01    2.3329500539373008E+01   -2.5355206524610492E+00
C    2.5343696438917206E+01    2.4566159996666627E+01   -2.6706570437436552E+00
C    2.6747086610625153E+01    2.4583364412168212E+01   -2.5822328853817265E+00
C    2.7438792865303466E+01    2.5828618867390976E+01   -2.5062782737271774E+00
C    2.8826207256576879E+01    2.5807675630909610E+01   -2.4947368645298051E+00
C    2.5314462664094684E+01    2.7063006483718507E+01   -2.6635895010936022E+00
C    2.6750886533808806E+01    2.7006806698086173E+01   -2.5147390001983871E+00
C    2.7454147622827218E+01    1.5956897030309102E+01   -2.3483381974708388E+00
C    2.8883400775783770E+01    1.5954996396138784E+01   -2.3322475775566258E+00
C    2.9605984845159409E+01    1.7163306376993937E+01   -2.2758966374658902E+00
C    3.1043761807396635E+01    1.7184508065514169E+01   -2.3285081485257613E+00
C    3.1716201024058183E+01    1.8421103732613958E+01   -2.2586083712334304E+00
C    3.3190110625874446E+01    1.8425799478138313E+01   -2.4475429135865894E+00
C    2.9581751854539675E+01    1.9698022684612262E+01   -2.3580086632677895E+00
C    3.0999556297208684E+01    1.9651960636643210E+01   -2.2478798573342460E+00
C    3.1731369359570071E+01    2.0869349830015683E+01   -2.4185364490446348E+00
C    3.3120543476225265E+01    2.0872024810094654E+01   -2.6039022256447817E+00
C    2.9625805327372007E+01    2.2129951210697953E+01   -2.4289003911883280E+00
C    3.1052141595536902E+01    2.2090472756095785E+01   -2.4920405573225604E+00
C    3.1764909418588321E+01    2.3349857982164970E+01   -2.6894509591695615E+00
C    3.3127617038435275E+01    2.3294577346988319E+01   -2.8890659013493023E+00
C    2.9573514460604972E+01    2.4558315354997280E+01   -2.5968034336942440E+00
C    3.0997930448272612E+01    2.4559281477746080E+01   -2.7103668950028932E+00
C    3.1747039420201780E+01    2.5787604108284345E+01   -2.7172163836186551E+00
C    3.3157107435684473E+01    2.5817437643995628E+01   -2.7273411463985830E+00
C    2.9566287896551323E+01    2.7038084984283017E+01   -2.4814913263777556E+00
C    3.1009090312193202E+01    2.7022596144944963E+01   -2.6362865179160524E+00
C    3.1779722510774132E+01    1.5930875636478738E+01   -2.2985014326859985E+00
C    3.3154006110353500E+01    1.5915843164516369E+01   -2.3129833045539208E+00
C    3.3884517987413517E+01    1.7170958437296832E+01   -2.3864402892723646E+00
C    3.5299815246832530E+01    1.7160898981858168E+01   -2.5364707996795848E+00
C    3.5994855909573587E+01    1.8451102278769859E+01   -2.6669638173885652E+00
C    3.7362848417446266E+01    1.8460876281688041E+01   -2.7798329400938755E+00
C    3.3891440715941592E+01    1.9671615948603502E+01   -2.6094282088921990E+00
C    3.5282916884276865E+01    1.9638634438544504E+01   -2.7423826420296371E+00
C    3.5978315130054291E+01    2.0863802364975534E+01   -2.8949187017332751E+00
C    3.7416988848893759E+01    2.0919547713421231E+01   -2.8695210335500194E+00
C    3.3842405265426606E+01    2.2077995683821531E+01   -2.8183802914139435E+00
C    3.5244369969324957E+01    2.2079864745433415E+01   -2.9008420475362375E+00
C    3.5986478276124096E+01    2.3304612512444095E+01   -2.9286476602004905E+00
C    3.7402815743203448E+01    2.3376903194159009E+01   -2.9272732265406272E+00
C    3.3879364644720845E+01    2.4560135497894503E+01   -2.8972815672795873E+00
C    3.5265915830975906E+01    2.4530292053079954E+01   -2.9221684294460797E+00
C    3.5983887800658138E+01    2.5790209740315976E+01   -3.0084153742094055E+00
C    3.7388674328449312E+01    2.5869072176985853E+01   -3.0340325257509857E+00
C    3.3869320435854505E+01    2.7051672260230571E+01   -2.8425731018658782E+00
C    3.5314695814572573E+01    2.7052232125599300E+01   -2.9192581249520315E+00
C    3.6001677087659196E+01    1.5979512817534864E+01   -2.4586787505198071E+00
C    3.7434471231298019E+01    1.5932216475902049E+01   -2.5795936705715072E+00
C    2.5322942740107482E+01    2.9515175335784988E+01   -2.5501270101620603E+00
C    2.6723342029825755E+01    2.9497639901628425E+01   -2.5766499365208069E+00
C    2.7497406268635583E+01    3.0732550241442972E+01   -2.5179248506816641E+00
C    2.8905973026124492E+01    3.0713204100342569E+01   -2.5607740258890899E+00
C    2.5299345254654220E+01    3.1965986733673358E+01   -2.4697945918093036E+00
C    2.6734950088984565E+01    3.1953340141814561E+01   -2.4747623679013002E+00
C    2.7386968126886352E+01    3.3215068691760564E+01   -2.4683728073338487E+00
C    2.8821858177296640E+01    3.3167122169048497E+01   -2.4945475562637478E+00
C    2.5334487624060472E+01    3.4443009901371333E+01   -2.5313457794104184E+00
C    2.6740767684769491E+01    3.4433028077576182E+01   -2.5643030052810096E+00
C    2.7498998847649840E+01    3.5625289829311747E+01   -2.4671068408389689E+00
C    2.8908938619649010E+01    3.5651408086338549E+01   -2.4979371659415897E+00
C    2.5359640438271505E+01    3.6893769871602629E+01   -2.5778359246645746E+00
C    2.6795411997790037E+01    3.6901865846271484E+01   -2.5302787210710704E+00
C    2.7460074594227461E+01    3.8113978411338493E+01   -2.3847834177825438E+00
C    2.8881210404179907E+01    3.8155791459026723E+01   -2.4012113752778350E+00
C    2.5354532900728199E+01    3.9367303200211879E+01   -2.6118031516745344E+00
C    2.6773388453885001E+01    3.9339537042683233E+01   -2.4012651890467414E+00
C    2.7425270842470844E+01    2.8216840969789644E+01   -2.4683807787542840E+00
C    2.8883177319278772E+01    2.8293567634920439E+01   -2.4452226402340638E+00
C    2.9592887011685740E+01    2.9523500184722501E+01   -2.5833248019940847E+00
C    3.1014905040938885E+01    2.9524126490145441E+01   -2.6684514079543802E+00
C    3.1735385137821147E+01    3.0753621989946254E+01   -2.6443319789461741E+00
C    3.3179405694412715E+01    3.0689022416595353E+01   -2.6375550437581832E+00
C    2.9554441610571942E+01    3.1965589594993368E+01   -2.5911150929710685E+00
C    3.0987451949346482E+01    3.1972395909995271E+01   -2.5952227427238386E+00
C    3.1706910553022620E+01    3.3135412548788949E+01   -2.4858483441150097E+00
C    3.3109763166172726E+01    3.3170949367093975E+01   -2.6396709910055218E+00
C    2.9584345459993557E+01    3.4378835598083263E+01   -2.5161759476698622E+00
C    3.0984226000523797E+01    3.4371239213378473E+01   -2.5609596179455805E+00
C    3.1685374710109048E+01    3.5627903564850349E+01   -2.6285386892967826E+00
C    3.3111826434535317E+01    3.5635214612992037E+01   -2.6476438321527032E+00
C    2.9543973863712484E+01    3.6892552684928063E+01   -2.4239349241117605E+00
C    3.0987279929926107E+01    3.6828992835558886E+01   -2.5521292102141553E+00
C    3.1726414982659055E+01    3.8088386217021331E+01   -2.5502902127030516E+00
C    3.3166951077702450E+01    3.8130641945865136E+01   -2.5712550851762725E+00
C    2.9620497214520721E+01    3.9372097892292551E+01   -2.4296870820428520E+00
C    3.1028138664369443E+01    3.9389562785316137E+01   -2.4566200676698569E+00
C    3.1697407580618744E+01    2.8241727265082336E+01   -2.6837387764308298E+00
C    3.3151391634877932E+01    2.8281912464531107E+01   -2.7380740034410884E+00
C    3.3898968152430605E+01    2.9478495834158959E+01   -2.7145320460331139E+00
C    3.5331594337015623E+01    2.9543202869256888E+01   -2.7943897003720859E+00
C    3.6022044716406846E+01    3.0761348954943411E+01   -2.7189720535514299E+00
C    3.7426859146642457E+01    3.0769299800078034E+01   -2.8054419593131672E+00
C    3.3839893676735365E+01    3.1905566170672632E+01   -2.6556788314274073E+00
C    3.5279712579666516E+01    3.1938501394177461E+01   -2.6602761095078113E+00
C    3.6008069643151586E+01    3.3226821094377023E+01   -2.7655805256727968E+00
C    3.7431754191546226E+01    3.3218304204662161E+01   -2.9291366489310895E+00
C    3.3808520599611946E+01    3.4350197912445395E+01   -2.7078689280418602E+00
C    3.5239982136895435E+01    3.4407045194691626E+01   -2.7783170558329413E+00
C    3.5930366652232777E+01    3.5650569946320886E+01   -2.8095699022113783E+00
C    3.7386056997271872E+01    3.5664978085786551E+01   -3.0271549305174390E+00
C    3.3798380777661862E+01    3.6865334417339710E+01   -2.6212652120336539E+00
C    3.5207578254932280E+01    3.6866303869843833E+01   -2.7372147804307838E+00
C    3.5943166703989263E+01    3.8091454780129432E+01   -2.6669537795421885E+00
C    3.7387526430969586E+01    3.8107984131137329E+01   -2.8468346330791312E+00
C    3.3892634938297995E+01    3.9365288881703094E+01   -2.3951194729529841E+00
C    3.5298630042160326E+01    3.9387750021502718E+01   -2.4543951007509706E+00
C    3.6034344281180211E+01    2.8294571650457943E+01   -2.9412269061408378E+00
C    3.7464228620049880E+01    2.8292927955773319E+01   -2.9782554167354816E+00
C    3.8111928559011382E+01    1.7183430533921698E+01   -2.6851663332745761E+00
C    3.9514722712729409E+01    1.7213426846266284E+01   -2.7648048035617045E+00
C    4.0254195691051066E+01    1.8454603849463432E+01   -2.7954898369389354E+00
C    4.1701950021397565E+01    1.8414775248172901E+01   -2.8863319979897084E+00
C    3.8106883709812244E+01    1.9648601735095919E+01   -2.8572085948848800E+00
C    3.9521447772571648E+01    1.9647420372624683E+01   -2.8460242914155400E+00
C    4.0239614763738842E+01    2.0874147480974472E+01   -2.8139933707671680E+00
C    4.1720684209556147E+01    2.0861449855987985E+01   -2.8367620561771401E+00
C    3.8143250365293000E+01    2.2172798988681784E+01   -2.8338778504951025E+00
C    3.9574514243783590E+01    2.2172595767483909E+01   -2.8436430024193617E+00
C    4.0290710001714686E+01    2.3349682252390657E+01   -2.8662626562285562E+00
C    4.1709252796185908E+01    2.3331404244254720E+01   -2.9057418248863525E+00
C    3.8135962725911043E+01    2.4634184827839462E+01   -2.9561304765956042E+00
C    3.9542355848767535E+01    2.4592558305751190E+01   -2.9757940629605169E+00
C    4.0257934356257621E+01    2.5814374654057975E+01   -2.9489717215779319E+00
C    4.1651141279854187E+01    2.5802200211057443E+01   -2.9617489462218414E+00
C    3.8127476899992494E+01    2.7063425771467752E+01   -3.0017348104892925E+00
C    3.9549988804641103E+01    2.7075427819396499E+01   -2.9888434602245546E+00
C    4.0269924468651141E+01    1.5949604498071922E+01   -2.8424276692743926E+00
C    4.1695976343523924E+01    1.5946533428209692E+01   -2.9724374660514852E+00
C    4.2485374096228938E+01    1.7188082618784389E+01   -2.8517237013152110E+00
C    4.3840891830342009E+01    1.7179752127685497E+01   -3.0882636862315049E+00
C    4.4593621015356042E+01    1.8413267958118865E+01   -3.1745614001200657E+00
C    4.5975940124133928E+01    1.8365064881319967E+01   -3.1401050613079420E+00
C    4.2419747051289207E+01    1.9624958052876391E+01   -2.9293889310867804E+00
C    4.3849319715464567E+01    1.9617784938049866E+01   -3.0992247191981868E+00
C    4.4560424117244310E+01    2.0892498313119795E+01   -3.0135484694578549E+00
C    4.6013751247924120E+01    2.0895381850206498E+01   -2.9825402723725296E+00
C    4.2409204983116283E+01    2.2098827576173935E+01   -2.8597314972017047E+00
C    4.3829498227668410E+01    2.2098350525371782E+01   -2.9963822833530216E+00
C    4.4543027639540860E+01    2.3392606905921397E+01   -2.9780446712355322E+00
C    4.5986601342870721E+01    2.3369238185757350E+01   -2.8808546463551008E+00
C    4.2383608704416702E+01    2.4596368937596079E+01   -2.9256475305075074E+00
C    4.3838587540516286E+01    2.4621147342591460E+01   -2.9909591198806131E+00
C    4.4549414132986790E+01    2.5824879417542309E+01   -2.9131181712150482E+00
C    4.6004432762502944E+01    2.5827251058753088E+01   -2.9096888271600392E+00
C    4.2416287224878864E+01    2.7013695117837148E+01   -2.8868762171642444E+00
C    4.3849378817355912E+01    2.7079869299279636E+01   -2.8282917552045852E+00
C    4.4534209074659188E+01    1.5937272168569198E+01   -3.0647575861833127E+00
C    4.6015350243923734E+01    1.5946617436133518E+01   -3.0573796463609701E+00
C    4.6709499278357654E+01    1.7155979378316868E+01   -3.1191323677302520E+00
C    4.8190675737264286E+01    1.7176957835688320E+01   -2.9771243888700556E+00
C    4.8850737409367682E+01    1.8404872286627736E+01   -2.9674643928194571E+00
C    5.0250108631736026E+01    1.8389709613827709E+01   -2.8657462449504294E+00
C    4.6704910830418726E+01    1.9625108205826169E+01   -2.9918409839524651E+00
C    4.8111809228003949E+01    1.9651175977111659E+01   -2.9474384297051555E+00
C    4.8823139473096276E+01    2.0856696749749339E+01   -2.8502195453422741E+00
C    5.0270868360129349E+01    2.0821824881124783E+01   -2.8289878593598212E+00
C    4.6720901092865148E+01    2.2112461029774238E+01   -2.9674951775211542E+00
C    4.8140646643246065E+01    2.2098962832365189E+01   -2.8964527178298471E+00
C    4.8850665548622281E+01    2.3330146923024458E+01   -2.6989214962534986E+00
C    5.0267283420576611E+01    2.3315062541781490E+01   -2.6353223663971290E+00
C    4.6706696806907814E+01    2.4520519369759494E+01   -2.9685943639131795E+00
C    4.8128623202238416E+01    2.4518794937881879E+01   -2.7425695683663669E+00
C    4.8825150301766257E+01    2.5807454747470270E+01   -2.7464501019199403E+00
C    5.0226046130501395E+01    2.5804241644965387E+01   -2.6670646721211688E+00
C    4.6653731146460075E+01    2.7091982428035514E+01   -2.8827215357131872E+00
C    4.8066409849757370E+01    2.7102589185728423E+01   -2.8367470157085042E+00
C    4.8876282108654493E+01    1.5933334894613465E+01   -2.9542403276115001E+00
C    5.0261763994537830E+01    1.5966312204553093E+01   -2.7662339346353488E+00
C    3.8100478766444233E+01    2.9500332033582861E+01   -2.8429268419446787E+00
C    3.9569169548807757E+01    2.9524409336431152E+01   -2.7706150052935592E+00
C    4.0272459074957901E+01    3.0755754735625047E+01   -2.7172612881271796E+00
C    4.1715450895981562E+01    3.0783703483593779E+01   -2.7664628289544804E+00
C    3.8156481791873219E+01    3.1975644801643355E+01   -2.8182857381732713E+00
C    3.9592515195110721E+01    3.2007625157647851E+01   -2.8174244635411521E+00
C    4.0290640268128648E+01    3.3223030354318823E+01   -2.9958309144341539E+00
C    4.1724228575619676E+01    3.3232580056473473E+01   -2.9465658183424410E+00
C    3.8114968990814894E+01    3.4457328008353151E+01   -2.9908722651343114E+00
C    3.9531348980361585E+01    3.4437011033815949E+01   -3.0723645937958808E+00
C    4.0261186545749226E+01    3.5644345746898949E+01   -3.0678528217196979E+00
C    4.1680843997368839E+01    3.5684723514065695E+01   -3.0039548133304481E+00
C    3.8100803917950209E+01    3.6886577328660458E+01   -3.0750181049133509E+00
C    3.9553418571831010E+01    3.6905630785094345E+01   -3.0139902121473292E+00
C    4.0319513393660095E+01    3.8150875324324346E+01   -2.9955766190614770E+00
C    4.1754794352189073E+01    3.8123370170548164E+01   -2.9981722174124621E+00
C    3.8154754813155620E+01    3.9364208278949228E+01   -2.6906453289608971E+00
C    3.9589088867126058E+01    3.9390686464212088E+01   -2.8137931335065463E+00
C    4.0266238064463238E+01    2.8302887677302024E+01   -2.9007299135077167E+00
C    4.1690024940937690E+01    2.8266223144553813E+01   -2.9208577049134608E+00
C    4.2412766705792407E+01    2.9543564689364043E+01   -2.8603810596490411E+00
C    4.3857072020145800E+01    2.9541283914839994E+01   -2.9310670916191413E+00
C    4.4521094124975946E+01    3.0768398864426462E+01   -2.9240307904666896E+00
C    4.5955404815572145E+01    3.0789379453044628E+01   -2.9034602118073845E+00
C    4.2416905608997737E+01    3.1984509581112196E+01   -2.8123711901005350E+00
C    4.3843733949736915E+01    3.2002713073473714E+01   -2.9237977165032158E+00
C    4.4573527516256831E+01    3.3277008287338795E+01   -2.9155160379862490E+00
C    4.5959729942213379E+01    3.3254304749330714E+01   -2.9157709941609178E+00
C    4.2398926789974929E+01    3.4460620727322322E+01   -3.0344669561799593E+00
C    4.3870812963029884E+01    3.4486529246579551E+01   -3.0210898672524436E+00
C    4.4636840057008975E+01    3.5721233378272949E+01   -3.1435236429848348E+00
C    4.6035747289098687E+01    3.5691980917488259E+01   -3.1564804396126189E+00
C    4.2456121247122624E+01    3.6931776061762058E+01   -3.0644226321598929E+00
C    4.3915355240438046E+01    3.6928718904864070E+01   -3.1483012129892187E+00
C    4.4592452409903395E+01    3.8210012664317233E+01   -3.1683772688234595E+00
C    4.6049827342028088E+01    3.8239960053027680E+01   -3.2500424300773902E+00
C    4.2381831520738004E+01    3.9378293905133539E+01   -3.0894597374614210E+00
C    4.3798082161843354E+01    3.9404963509046020E+01   -3.1372558861225124E+00
C    4.4519985828262683E+01    2.8298558188976756E+01   -2.8480736897759962E+00
C    4.5945893746721616E+01    2.8336174372630005E+01   -2.8232666558841641E+00
C    4.6670129272532549E+01    2.9539625804430717E+01   -2.7889227385246844E+00
C    4.8096613248481027E+01    2.9515278586918750E+01   -2.7710413191493042E+00
C    4.8839476489200436E+01    3.0807051437003480E+01   -2.7585412116925445E+00
C    5.0266555056048865E+01    3.0714038748571863E+01   -2.5967999856096293E+00
C    4.6660550927385600E+01    3.2026402405114929E+01   -2.8797486947914339E+00
C    4.8117703792426163E+01    3.1986552370036584E+01   -2.7822337364237035E+00
C    4.8801521199582929E+01    3.3229039590606583E+01   -2.7023739691314592E+00
C    5.0251733572666701E+01    3.3216176844275473E+01   -2.5457022032134087E+00
C    4.6712047237850747E+01    3.4496917875200772E+01   -2.9621282577038257E+00
C    4.8159196634875826E+01    3.4477283997697370E+01   -2.8349406454614261E+00
C    4.8869828967095401E+01    3.5730215570904605E+01   -2.8237739170170082E+00
C    5.0269286463466237E+01    3.5653838985331369E+01   -2.6165531687422243E+00
C    4.6762161309806295E+01    3.6956153898965020E+01   -3.1331115913761076E+00
C    4.8188531887729397E+01    3.6939796107562351E+01   -2.9631347818670934E+00
C    4.8911171983360404E+01    3.8196083370435559E+01   -2.9302154572424786E+00
C    5.0301065451935095E+01    3.8128465957090967E+01   -2.6833405517594948E+00
C    4.6759076315259477E+01    3.9464743033134752E+01   -3.1387661352341154E+00
C    4.8144897934192826E+01    3.9382744090302296E+01   -3.0391611635245348E+00
C    4.8831055878974688E+01    2.8291770741157226E+01   -2.7898383499977637E+00
C    5.0278085519482325E+01    2.8247750421597789E+01   -2.7663984251274880E+00
O    4.2266962576612093E+02    2.1685419257614288E+02    6.5566450536374266E+00
H    4.2260880875289655E+02    2.1685613394734091E+02    7.5386123907212550E+00
H    4.2312689862152280E+02    2.1771632241133605E+02    6.3513511464611572E+00
O    4.7565166262248357E+02    2.2109576484253870E+02    1.0760756483000920E+01
H    4.7503234107058069E+02    2.2189855422932359E+02    1.0608466548564582E+01
H    4.7516969993881230E+02    2.2022671673385165E+02    1.0734696685047478E+01
O    3.8550360716620639E+02    3.0573302048964166E+02    5.8691662146648174E+00
H    3.8588884137979426E+02    3.0601184764063544E+02    5.0456622464789014E+00
H    3.8601090597161476E+02    3.0488596505906838E+02    6.1984240258660499E+00
O    4.9520797985846775E+02    1.6101181928284547E+02    1.2831139876774506E+01
H    4.9432058194926708E+02    1.6097862782225482E+02    1.3256741767908508E+01
H    4.9566428643348024E+02    1.6166383287789529E+02    1.3382803626107441E+01
O    3.7430463906602210E+02    2.7960249901322283E+02    4.3642945821904855E-01
H    3.7477293248820490E+02    2.8038799024422622E+02    1.3637077822751290E-01
H    3.7335191781641868E+02    2.7985397147015226E+02    4.2996583846736525E-01
O    3.8351054410063983E+02    1.5245889051419110E+02    1.0266963191660292E+01
H    3.8260958622190344E+02    1.5288600877774920E+02    1.0238284213457778E+01
H    3.8369182025339342E+02    1.5177305838188033E+02    9.5436944902444036E+00
O    4.4207618838729707E+02    2.1241601905622809E+02    1.4721945933670998E+01
H    4.4153166123120275E+02    2.1318322570631588E+02    1.4993113346473683E+01
H    4.4191497980585092E+02    2.1241266150321749E+02    1.3753585163012763E+01
O    4.3018434870718465E+02    8.9903873178231422E+01    5.2445822653699201E+00
H    4.3056250322945999E+02    8.9801696039022175E+01    4.3301767070681114E+00
H    4.2920786171177247E+02    9.0169577576254724E+01    5.1182965959115077E+00
O    2.9704003606584649E+02    2.9118774469960181E+02    3.2115859663013513E+00
H    2.9686367743062658E+02    2.9099883094061369E+02    2.2658428142054983E+00
H    2.9664020435211745E+02    2.9049514137870364E+02    3.7688609164860489E+00
O    4.9502653401750092E+02    2.9672828814789779E+02    5.6991760286862911E+00
H    4.9542665725962337E+02    2.9602924532381843E+02    5.0884797316458172E+00
H    4.9579869945021704E+02    2.9691280905961207E+02    6.3821249115010570E+00
O    3.7978540832337274E+02    2.4689181227260298E+02    1.1846142518281001E+01
H    3.8021945682012330E+02    2.4714008837665827E+02    1.2688737032107170E+01
H    3.8008967469395554E+02    2.4761974496201728E+02    1.1252577496535213E+01
O    3.0863988937771552E+02    2.6783679642284579E+02    6.6550110309550394E+00
H    3.0948870007949290E+02    2.6751237945285561E+02    7.0567871848820021E+00
H    3.0806716471300911E+02    2.6836708283913362E+02    7.3116313667980224E+00
O    4.2392180586744115E+02    1.8414924461058166E+02    1.4463382365570730E+01
H    4.2456231277246241E+02    1.8486410443196499E+02    1.4351327510796100E+01
H    4.2308479464959004E+02    1.8463484582497179E+02    1.4296360510587650E+01
O    4.3061511220458863E+02    9.7801085142032022E+01    1.6635571370706757E+01
H    4.3107763231543049E+02    9.7459130830420833E+01    1.5850535982805722E+01
H    4.3052617487045796E+02    9.8793634542252960E+01    1.6468042385258915E+01
O    3.0120967860411594E+02    3.8284168142658433E+02    8.8468532329290177E+00
H    3.0061727497622763E+02    3.8203579380543380E+02    9.0265451075519749E+00
H    3.0195494362512443E+02    3.8282689123317010E+02    9.4662839647790342E+00
O    4.1972741793006844E+02    3.2287013094894985E+02    1.7380301880799085E+01
H    4.2020569342621530E+02    3.2324428367566168E+02    1.8155176672732864E+01
H    4.2046324872701473E+02    3.2285167848350574E+02    1.6688682454890067E+01
O    3.4892166579544562E+02    2.3564145641954590E+02    1.4106465848564024E+01
H    3.4943560522520693E+02    2.3550700620126395E+02    1.3167705089443791E+01
H    3.4856269912856493E+02    2.3658326338467052E+02    1.4081663340748703E+01
O    3.8774272805123428E+02    2.0963702010392902E+02    5.3952364393633827E+00
H    3.8695670635419799E+02    2.0988915174040389E+02    5.9934539342788327E+00
H    3.8823341526490577E+02    2.0889184977794682E+02    5.8864841924636249E+00
O    3.6763639962628514E+02    2.4572260274766708E+02    1.1985114263665486E-01
H    3.6780924129334397E+02    2.4528837044778376E+02    1.0110477063359324E+00