 # Version information for this restart file 
 # current date 2019-02-04 11:55:52.786
 # current working dir /scratch/snx3000/gtocci/gtocci/MEMBRANES/AIMD_US_IONS_GRA/potassium/aimd_us_pot/us_21
 # Program compiled at                             Thu Oct 11 21:49:41 CEST 2018
 # Program compiled on                                                  daint104
 # Program compiled for                                   CRAY_XC50-gfortran_gpu
 # Source code revision number                                     git:be74c20a5
 &GLOBAL
   PRINT_LEVEL  LOW
   PROJECT_NAME GRAS
   RUN_TYPE  MD
   WALLTIME 10200
 &END GLOBAL
 &MOTION
   &MD
     ENSEMBLE  NVT
     STEPS  100000
     TIMESTEP     9.9999999999999989E-01
     STEP_START_VAL  40762
     TIME_START_VAL     4.0761999999990709E+04
     ECONS_START_VAL    -8.3206590968728742E+03
     TEMPERATURE     3.0000000000000000E+02
     TEMP_KIND  T
     &BAROSTAT
       PRESSURE     1.0000000000000000E+00
       TIMECON     9.9999999999999986E+01
       VIRIAL  Z
     &END BAROSTAT
     &THERMOSTAT
       TYPE  NOSE
       REGION  GLOBAL
       &NOSE
         LENGTH  4
         TIMECON     9.9999999999999986E+01
         MTS  2
         &COORD
               1.3085392052325912E-01    1.5899965220605059E+01   -5.0416749550906403E+01    3.5986876197590455E+01
         &END COORD
         &VELOCITY
              -1.5616609051936997E-06    1.5114221839743124E-04    1.1456252139532818E-04   -2.5527718246474567E-04
         &END VELOCITY
         &MASS
               7.0145132684705392E+07    1.6237299232570693E+04    1.6237299232570693E+04    1.6237299232570693E+04
         &END MASS
         &FORCE
               6.7155504797928935E-10   -4.7974463588364115E-08   -3.5666043668008266E-08   -4.5385442541650042E-08
         &END FORCE
       &END NOSE
     &END THERMOSTAT
     &AVERAGES  T
       &RESTART_AVERAGES
         ITIMES_START  1
         AVECPU     4.9451245276534657E+01
         AVEHUGONIOT     0.0000000000000000E+00
         AVETEMP_BARO     0.0000000000000000E+00
         AVEPOT    -8.3232512788119529E+03
         AVEKIN     2.0520939313714543E+00
         AVETEMP     2.9999964751971874E+02
         AVEKIN_QM     0.0000000000000000E+00
         AVETEMP_QM     0.0000000000000000E+00
         AVEVOL     2.1331414786628075E+05
         AVECELL_A     4.8437460238125503E+01
         AVECELL_B     4.6608961231944626E+01
         AVECELL_C     9.4486306644279466E+01
         AVEALPHA     9.0000000000000057E+01
         AVEBETA     9.0000000000000057E+01
         AVEGAMMA     9.0000000000000057E+01
         AVE_ECONS    -2.2229034701645078E+00
         AVE_PRESS     0.0000000000000000E+00
         AVE_PXX     0.0000000000000000E+00
       &END RESTART_AVERAGES
     &END AVERAGES
     &PRINT
       &TEMP_KIND  SILENT
       &END TEMP_KIND
     &END PRINT
   &END MD
   &FREE_ENERGY
     &METADYN
       MIN_DISP    -1.0000000000000000E+00
       OLD_HILL_NUMBER  0
       OLD_HILL_STEP  0
       DO_HILLS  F
       STEP_START_VAL  40762
       NHILLS_START_VAL  0
       &METAVAR
         SCALE     1.0000000000000000E+00
         COLVAR  1
       &END METAVAR
       &PRINT
         &COLVAR  SILENT
           COMMON_ITERATION_LEVELS  3
           &EACH
             MD  1
           &END EACH
         &END COLVAR
       &END PRINT
     &END METADYN
   &END FREE_ENERGY
   &CONSTRAINT
     &COLLECTIVE
       COLVAR  1
       INTERMOLECULAR  T
       &RESTRAINT
         K     4.4625385281452931E-04
       &END RESTRAINT
     &END COLLECTIVE
     &COLVAR_RESTART
           1.9842124395299255E+01
     &END COLVAR_RESTART
   &END CONSTRAINT
   &PRINT
     &TRAJECTORY  SILENT
       &EACH
         MD  1
       &END EACH
     &END TRAJECTORY
     &VELOCITIES  SILENT
       &EACH
         MD  1
       &END EACH
     &END VELOCITIES
     &FORCES  SILENT
       UNIT eV*angstrom^-1
       &EACH
         MD  1
       &END EACH
     &END FORCES
     &RESTART  SILENT
       &EACH
         MD  1
       &END EACH
     &END RESTART
     &RESTART_HISTORY  SILENT
       &EACH
         MD  100
       &END EACH
     &END RESTART_HISTORY
   &END PRINT
 &END MOTION
 &FORCE_EVAL
   METHOD  QS
   &DFT
     BASIS_SET_FILE_NAME /users/gtocci/scratch_daint_3000/data_cp2k//BASIS_MOLOPT
     POTENTIAL_FILE_NAME /users/gtocci/scratch_daint_3000/data_cp2k//GTH_POTENTIALS
     WFN_RESTART_FILE_NAME ./GRAS-RESTART.wfn
     CHARGE  1
     &SCF
       MAX_SCF  10
       EPS_SCF     9.9999999999999995E-07
       SCF_GUESS  RESTART
       &OT  T
         MINIMIZER  DIIS
         PRECONDITIONER  FULL_KINETIC
       &END OT
       &OUTER_SCF  T
         EPS_SCF     9.9999999999999995E-07
         MAX_SCF  30
       &END OUTER_SCF
       &PRINT
         &RESTART  SILENT
           ADD_LAST  NUMERIC
           &EACH
             QS_SCF  50
           &END EACH
         &END RESTART
       &END PRINT
     &END SCF
     &QS
       MAP_CONSISTENT  T
       EXTRAPOLATION  ASPC
       EXTRAPOLATION_ORDER  4
     &END QS
     &MGRID
       NGRIDS  5
       CUTOFF     4.6000000000000000E+02
     &END MGRID
     &XC
       DENSITY_CUTOFF     1.0000000000000000E-10
       GRADIENT_CUTOFF     1.0000000000000000E-10
       TAU_CUTOFF     1.0000000000000000E-10
       &XC_GRID
         XC_DERIV  SPLINE2_SMOOTH
       &END XC_GRID
       &XC_FUNCTIONAL  NO_SHORTCUT
         &LIBXC  T
           FUNCTIONAL XC_GGA_X_OPTB88_VDW
         &END LIBXC
         &VWN  T
         &END VWN
       &END XC_FUNCTIONAL
       &VDW_POTENTIAL
         POTENTIAL_TYPE  NON_LOCAL
         &NON_LOCAL
           TYPE  DRSLL
           VERBOSE_OUTPUT  T
           KERNEL_FILE_NAME /users/gtocci/scratch_daint_3000/data_cp2k//vdW_kernel_table.dat
         &END NON_LOCAL
       &END VDW_POTENTIAL
     &END XC
     &REAL_TIME_PROPAGATION
       INITIAL_WFN  SCF_WFN
     &END REAL_TIME_PROPAGATION
     &PRINT
       &MULLIKEN  SILENT
         FILENAME =GRAS.mulliken
       &END MULLIKEN
     &END PRINT
   &END DFT
   &SUBSYS
     &CELL
       A     2.5632000000000001E+01    0.0000000000000000E+00    0.0000000000000000E+00
       B     0.0000000000000000E+00    2.4664400000000022E+01    0.0000000000000000E+00
       C     0.0000000000000000E+00    0.0000000000000000E+00    5.0000000000000028E+01
       MULTIPLE_UNIT_CELL  1 1 1
     &END CELL
     &COORD
C    1.8332028683032686E+01   -8.7008427417940553E+00   -6.1032956155121312E+00
C    1.9740721013027112E+01   -8.7234311062171823E+00   -6.0396518058727473E+00
C    2.0468394355527053E+01   -7.4724051689515658E+00   -6.0535207597144449E+00
C    2.1859076452416417E+01   -7.4850137938491441E+00   -5.9253831268250510E+00
C    1.8287891953412160E+01   -6.2148019742902836E+00   -6.1026068355744636E+00
C    1.9745729708389526E+01   -6.2131244894684192E+00   -6.1036692273628486E+00
C    2.0451959864176313E+01   -4.9908196154277986E+00   -6.0428787592669639E+00
C    2.1867596745700379E+01   -4.9870648997688027E+00   -5.8847840030779617E+00
C    1.8321430591068115E+01   -3.7795271775753521E+00   -6.2323562340359633E+00
C    1.9751722020342719E+01   -3.7324195832101443E+00   -6.1589382387837475E+00
C    2.0430226152919111E+01   -2.5156054211320362E+00   -6.0326355468625792E+00
C    2.1881240006397366E+01   -2.4926207788245378E+00   -5.8914953205865164E+00
C    1.8287665535585596E+01   -1.3364723292685929E+00   -6.0191285188278130E+00
C    1.9704182700869296E+01   -1.2987938077984116E+00   -5.9658712240224085E+00
C    2.0478436108356323E+01   -8.0812994766068749E-02   -5.9702738367428507E+00
C    2.1898283191514516E+01   -4.6703068917708063E-02   -5.8796270234588688E+00
C    1.8301572304255096E+01    1.1153339136322802E+00   -5.8591672007453761E+00
C    1.9729760923170030E+01    1.1248487630258330E+00   -5.9059462080870579E+00
C    2.0504378332990793E+01   -9.9494726484495661E+00   -5.9387008259514573E+00
C    2.1877741509697419E+01   -9.9537676728927842E+00   -5.8058019869393389E+00
C    2.2599874600059728E+01   -8.7255142435789352E+00   -5.8257028321510163E+00
C    2.4053494210728889E+01   -8.7156258547306535E+00   -5.6490552606221724E+00
C    2.4737205977632510E+01   -7.4603455392541749E+00   -5.6656338317120456E+00
C    2.6192413805152057E+01   -7.4882896351233983E+00   -5.6621453636106827E+00
C    2.2593312682551986E+01   -6.2480798269104456E+00   -5.8679890932290020E+00
C    2.4011392389124630E+01   -6.2350227559501663E+00   -5.7662964005062465E+00
C    2.4697159470255258E+01   -4.9777629255285669E+00   -5.7455799299244035E+00
C    2.6104186719301918E+01   -5.0174887219074007E+00   -5.7638773310835898E+00
C    2.2599105106815657E+01   -3.7346312502974413E+00   -5.8328558877877184E+00
C    2.3997873441128604E+01   -3.6988498810581558E+00   -5.7040753595300160E+00
C    2.4721029920506915E+01   -2.4874758693255252E+00   -5.7302037165842714E+00
C    2.6131578267639149E+01   -2.5394291756051715E+00   -5.7372621258492851E+00
C    2.2609994233790051E+01   -1.2939894983795781E+00   -5.8814822601130174E+00
C    2.4021754922632368E+01   -1.2478699028352147E+00   -5.7803140311679515E+00
C    2.4711389237672659E+01   -2.2085448910569006E-02   -5.8585222377891588E+00
C    2.6117433598123057E+01   -7.4795191797996693E-02   -5.9244699911576619E+00
C    2.2609328816157500E+01    1.1720230427593570E+00   -5.7974419147150016E+00
C    2.4048963313674157E+01    1.1881374634283799E+00   -5.7598341276494356E+00
C    2.4776582884069697E+01   -9.9465986921298537E+00   -5.6396153796970827E+00
C    2.6170617842164027E+01   -9.9456719988739337E+00   -5.7037626772834100E+00
C    2.6876296263006324E+01   -8.7376689955791722E+00   -5.7254178007472021E+00
C    2.8300125826523388E+01   -8.7453646983159690E+00   -5.8689260679510067E+00
C    2.8997855206583292E+01   -7.4627586355145645E+00   -5.9045367411492258E+00
C    3.0432424153197640E+01   -7.4912836759240102E+00   -5.9604539764430760E+00
C    2.6849194662395430E+01   -6.2470741727906338E+00   -5.8293718164865425E+00
C    2.8307669026095066E+01   -6.2238291251327320E+00   -5.8869554916619551E+00
C    2.8973637841633497E+01   -4.9877433741152837E+00   -5.9882793994681371E+00
C    3.0410980716418631E+01   -4.9974357575915827E+00   -5.9597542576636879E+00
C    2.6816793899103224E+01   -3.7986133040599044E+00   -5.7370679421619153E+00
C    2.8225339674040061E+01   -3.7857694917834981E+00   -5.9437772510660949E+00
C    2.8954597512303007E+01   -2.5552151189623298E+00   -5.9018785931104061E+00
C    3.0356730669108785E+01   -2.5344541497852653E+00   -5.8903169219216656E+00
C    2.6819773555743847E+01   -1.2966088637839186E+00   -5.8803283764111027E+00
C    2.8227453752636226E+01   -1.2996507525701246E+00   -6.0143150375205154E+00
C    2.8956628431465933E+01   -6.8386418019772466E-02   -6.0479996772659881E+00
C    3.0398633110726781E+01   -6.7910697811317464E-02   -5.9657196099100842E+00
C    2.6822985151475748E+01    1.1735439013472995E+00   -6.0135623095473223E+00
C    2.8292745606431769E+01    1.1654355110662822E+00   -6.0962471537815555E+00
C    2.9021041444502014E+01   -9.9669637339330155E+00   -5.9116011143157214E+00
C    3.0409785044633040E+01   -9.9764419591533269E+00   -6.0108569016266724E+00
C    1.8291535996867214E+01    3.5799297685239999E+00   -5.8595321859041514E+00
C    1.9737283914173265E+01    3.6351183259415603E+00   -5.9725547152235769E+00
C    2.0403080953217028E+01    4.8659903526303978E+00   -5.9751203893448555E+00
C    2.1834022539811706E+01    4.8699168745534953E+00   -5.9114467969775051E+00
C    1.8294343998035366E+01    6.0731049381935769E+00   -5.8823155223288870E+00
C    1.9726903643490949E+01    6.0919287526515733E+00   -5.9510834765355751E+00
C    2.0426473786494221E+01    7.3612776463208807E+00   -5.9489703624322621E+00
C    2.1866237809612503E+01    7.3454036844854862E+00   -5.9534324535872605E+00
C    1.8269661074536650E+01    8.5543407418483159E+00   -5.7984558435304949E+00
C    1.9684794168250868E+01    8.5882290608064764E+00   -5.8950794492836662E+00
C    2.0401125874665198E+01    9.8093158739097674E+00   -5.9426884212212494E+00
C    2.1850424670144196E+01    9.8184900412201426E+00   -5.8563267711599662E+00
C    1.8298735653291597E+01    1.1063046171742490E+01   -5.8377017595750589E+00
C    1.9705405200075113E+01    1.1054487901321634E+01   -5.8766612879377780E+00
C    2.0439978400562950E+01    1.2276190443410959E+01   -5.8316652588092541E+00
C    2.1882033167078252E+01    1.2266780901618318E+01   -5.7566843697589194E+00
C    1.8312093791487314E+01    1.3495811518249361E+01   -5.9339525706141316E+00
C    1.9748179656689761E+01    1.3511566305053346E+01   -5.9396347144237014E+00
C    2.0431596844342330E+01    2.3784464626215245E+00   -5.8672970308445080E+00
C    2.1867536666189547E+01    2.4335780758570058E+00   -5.8771839696751815E+00
C    2.2534013133358119E+01    3.6363255370513832E+00   -5.9423016059981952E+00
C    2.3993346052107853E+01    3.6390317936401546E+00   -5.8694613296891838E+00
C    2.4712416400043711E+01    4.8388482126021817E+00   -5.9605063544070820E+00
C    2.6126225593670267E+01    4.8527752030217242E+00   -6.1084957642171966E+00
C    2.2555782459754816E+01    6.1176729358693382E+00   -5.9626724854184054E+00
C    2.3984804031516301E+01    6.0899273889763794E+00   -5.9523529838934861E+00
C    2.4701646654148202E+01    7.3083978473662272E+00   -5.9536471510531088E+00
C    2.6126742935180761E+01    7.3263378612253280E+00   -6.0131142280459748E+00
C    2.2568999668725539E+01    8.5985981227575135E+00   -5.8319597718737146E+00
C    2.4004006182531388E+01    8.5660663841363309E+00   -5.8838630365471349E+00
C    2.4690912969744954E+01    9.7979636520646167E+00   -5.9211220705968399E+00
C    2.6134342446051001E+01    9.7918201522821899E+00   -5.9556128505405734E+00
C    2.2581815373258035E+01    1.1037645130913583E+01   -5.7663455760927116E+00
C    2.3976472611971257E+01    1.1070629730018251E+01   -5.8341634185088669E+00
C    2.4709069783219210E+01    1.2267466617976499E+01   -5.7658702769045753E+00
C    2.6118727885131424E+01    1.2263242741774382E+01   -5.7124877848665685E+00
C    2.2613843971076580E+01    1.3499151859225416E+01   -5.7079705367212359E+00
C    2.4038926731533913E+01    1.3485230159129733E+01   -5.6711346054812664E+00
C    2.4725528181177793E+01    2.4305515447459767E+00   -5.7721223170864508E+00
C    2.6149500213139756E+01    2.4244177717546935E+00   -5.9346399412435069E+00
C    2.6883685984204668E+01    3.6258569490651520E+00   -6.0922796935408883E+00
C    2.8286867052957664E+01    3.5902465463347819E+00   -6.0195292783180827E+00
C    2.8965619868167611E+01    4.8580217748099068E+00   -5.9328237253481788E+00
C    3.0397486561391688E+01    4.8664957758586782E+00   -5.8014437817602422E+00
C    2.6836179286982411E+01    6.1011712176923796E+00   -5.9797228814469516E+00
C    2.8261776394715636E+01    6.0886806632091002E+00   -5.9472147828468200E+00
C    2.8949492020797912E+01    7.2993649235636413E+00   -5.8630549323556425E+00
C    3.0397173738288906E+01    7.3372086944611361E+00   -5.7779711393649302E+00
C    2.6833119125327219E+01    8.5407970806088862E+00   -6.0067041189743176E+00
C    2.8263642207397194E+01    8.5456598818931706E+00   -5.8820449126620122E+00
C    2.8987884544440988E+01    9.7958250557347490E+00   -5.8261951143336166E+00
C    3.0418743139901824E+01    9.7965117039134260E+00   -5.7924909395835344E+00
C    2.6838072116824641E+01    1.1023851666950938E+01   -5.8622594966992931E+00
C    2.8282908737216118E+01    1.1020099261050881E+01   -5.8882740187081994E+00
C    2.8978595100140257E+01    1.2256718804073852E+01   -5.9991485024233659E+00
C    3.0419112374877574E+01    1.2252463831742292E+01   -5.9594560293261907E+00
C    2.6875676951431274E+01    1.3463901491799437E+01   -5.7637441028049725E+00
C    2.8279130526394717E+01    1.3485007224624491E+01   -5.9629490566511656E+00
C    2.9020925594610521E+01    2.3713947779252273E+00   -5.9536793179225134E+00
C    3.0429122947420336E+01    2.3911474987846333E+00   -5.7412186897836657E+00
C    3.1116618643103148E+01   -8.7448558434729229E+00   -5.9842117593536406E+00
C    3.2535902881651921E+01   -8.7449351270935569E+00   -6.0036369149171458E+00
C    3.3213667543068269E+01   -7.5079834760008151E+00   -5.9177064393215542E+00
C    3.4642960981979300E+01   -7.4611059308592242E+00   -5.9809367636095923E+00
C    3.1124753236851099E+01   -6.2300530212632390E+00   -5.9303733979218256E+00
C    3.2523693334352892E+01   -6.2751745104067780E+00   -5.9104619306765684E+00
C    3.3269886953457721E+01   -5.0503703277498344E+00   -5.9399014611657597E+00
C    3.4688525168721171E+01   -4.9800472007014687E+00   -5.8547953468410805E+00
C    3.1124681195097772E+01   -3.7740885448647696E+00   -5.9758476453427125E+00
C    3.2586276209156033E+01   -3.7836987876496724E+00   -5.9232483749456435E+00
C    3.3255577384971865E+01   -2.5589932247212079E+00   -5.8333982491033805E+00
C    3.4669687567656979E+01   -2.4990827770219104E+00   -5.7659709756024835E+00
C    3.1113227517578604E+01   -1.2867829258191537E+00   -5.8452563957933750E+00
C    3.2534073364932738E+01   -1.3242211432323829E+00   -5.7878128759049856E+00
C    3.3256935435185319E+01   -1.2534984784345032E-01   -5.6808454492987721E+00
C    3.4685000595504484E+01   -8.6266398208977357E-02   -5.5868824931274839E+00
C    3.1128522745507372E+01    1.1330149091738786E+00   -5.8056473178863914E+00
C    3.2567660399191936E+01    1.1233147811847364E+00   -5.7096013887733852E+00
C    3.3257564968468692E+01   -9.9434850312645544E+00   -5.9863487775890096E+00
C    3.4680147976970169E+01   -9.9474718801537190E+00   -6.0396632502702916E+00
C    3.5360068327356650E+01   -8.6871903598743483E+00   -6.0875221840520632E+00
C    3.6793607595681543E+01   -8.7153289550053579E+00   -6.0484635003992899E+00
C    3.7555777211473178E+01   -7.4880945386680819E+00   -5.9500572682174129E+00
C    3.8962218427175678E+01   -7.5077907680052247E+00   -5.9953478192377672E+00
C    3.5369749228763880E+01   -6.2234114813619303E+00   -5.8347799047328959E+00
C    3.6815883701143910E+01   -6.2635153753110560E+00   -5.8382109815338064E+00
C    3.7509546464485524E+01   -5.0161722209486097E+00   -5.8572173909072021E+00
C    3.8927423739446063E+01   -5.0600008854500160E+00   -5.9805305610772432E+00
C    3.5411065710665227E+01   -3.7533763916625134E+00   -5.8074040610743163E+00
C    3.6835892326424684E+01   -3.7971493355985038E+00   -5.7974825714073868E+00
C    3.7552662502301338E+01   -2.5655023038437621E+00   -5.7251830832647332E+00
C    3.8966388037753340E+01   -2.5699930004833673E+00   -5.8445023789127228E+00
C    3.5427430723265850E+01   -1.2846699995809503E+00   -5.6387481580214391E+00
C    3.6833660276526764E+01   -1.3150552751547231E+00   -5.6514543792642993E+00
C    3.7553794258378282E+01   -1.0882507196310198E-01   -5.5375925853299233E+00
C    3.8945103309223576E+01   -9.7123056252798906E-02   -5.5963781792670231E+00
C    3.5392414834725358E+01    1.1309552740995676E+00   -5.4989173102906754E+00
C    3.6812756753754329E+01    1.1095750313842676E+00   -5.5478479629641591E+00
C    3.7513802949168969E+01   -9.9591761904126646E+00   -6.0451152475961454E+00
C    3.8930997808101857E+01   -9.9533497165337028E+00   -6.1164203937582258E+00
C    3.9653658961899282E+01   -8.7235695753564002E+00   -6.0866994004809571E+00
C    4.1098045573590937E+01   -8.7148744935233076E+00   -6.1457699711742046E+00
C    4.1797527427800702E+01   -7.4709332144901843E+00   -6.1376557012493231E+00
C    4.3228440672158115E+01   -7.4651088006255559E+00   -6.1802106575032072E+00
C    3.9643911264649390E+01   -6.2716775175259345E+00   -6.0241008705990264E+00
C    4.1097344295773418E+01   -6.2224886789836562E+00   -6.1136885332714002E+00
C    4.1794397754064605E+01   -5.0029387893803356E+00   -6.1309572644101875E+00
C    4.3229860000740018E+01   -4.9943958257800105E+00   -6.2093721652167480E+00
C    3.9660170351986750E+01   -3.7963636294520762E+00   -6.0438525174730486E+00
C    4.1088231877819510E+01   -3.7858658098816544E+00   -6.1203976469100256E+00
C    4.1790265185830798E+01   -2.5389590865817255E+00   -6.0886858807284749E+00
C    4.3218357231364621E+01   -2.5833809916714734E+00   -6.1535784102932016E+00
C    3.9640734833756902E+01   -1.3037386257263326E+00   -5.8265673007855483E+00
C    4.1061052982702130E+01   -1.3193249402500367E+00   -5.9335090681848417E+00
C    4.1812726719446971E+01   -1.0986418715641595E-01   -5.8459181079802951E+00
C    4.3235116759313009E+01   -1.1353452902358113E-01   -5.9562560268251579E+00
C    3.9690215134577734E+01    1.1178827915911194E+00   -5.5185388131688962E+00
C    4.1072607319160802E+01    1.1545462021184558E+00   -5.6800551430204687E+00
C    4.1801774302504008E+01   -9.9171946431753106E+00   -6.1099816607360884E+00
C    4.3246988146075360E+01   -9.9419532933561676E+00   -6.0925198052749927E+00
C    3.1132629082556225E+01    3.6368603809454876E+00   -5.7318079871344247E+00
C    3.2534218211896061E+01    3.6019856436322990E+00   -5.6554742784267900E+00
C    3.3255007317504266E+01    4.8326869224565776E+00   -5.7492138957283139E+00
C    3.4698534720967103E+01    4.8202140308106074E+00   -5.7214871578863535E+00
C    3.1094316144872352E+01    6.1081038704460600E+00   -5.8231885888256931E+00
C    3.2537650540082986E+01    6.0511062318900155E+00   -5.7640415079770690E+00
C    3.3243216987534311E+01    7.2674084398427174E+00   -5.8164754146751276E+00
C    3.4672354977224501E+01    7.2454140142568750E+00   -5.8706828701121507E+00
C    3.1129845042891183E+01    8.5648594752116747E+00   -5.7568748724281029E+00
C    3.2553746628706890E+01    8.5231827020344646E+00   -5.7691182659095439E+00
C    3.3250979720876565E+01    9.7680414538719340E+00   -5.8483102194605259E+00
C    3.4664076197170139E+01    9.7648458948140036E+00   -5.9263935936136578E+00
C    3.1136933449998320E+01    1.1015050479124156E+01   -5.9569707588084722E+00
C    3.2576699780384935E+01    1.1031409304542217E+01   -5.9090055183833057E+00
C    3.3294366759015062E+01    1.2233724808539545E+01   -5.9474813681092202E+00
C    3.4708012828930030E+01    1.2264421332982339E+01   -5.9327365568421842E+00
C    3.1153612734667224E+01    1.3479437662367342E+01   -5.9693006304869529E+00
C    3.2571024533787160E+01    1.3440636872053892E+01   -6.0100657861543008E+00
C    3.3277334225693977E+01    2.3517329125875128E+00   -5.6629420834826467E+00
C    3.4686146503636870E+01    2.3648081769280753E+00   -5.5185403974115150E+00
C    3.5402364198902781E+01    3.6162489439839085E+00   -5.5525597101777056E+00
C    3.6844134528583950E+01    3.5873873115645880E+00   -5.5906164102659162E+00
C    3.7547544472308687E+01    4.7905859260836330E+00   -5.5665734354649405E+00
C    3.8985202809688353E+01    4.8172395942106156E+00   -5.6324310223562417E+00
C    3.5393480811412800E+01    6.0572635075081580E+00   -5.8351423188039586E+00
C    3.6820418072066666E+01    6.0266463138144868E+00   -5.7441204110245279E+00
C    3.7548210014262338E+01    7.2637015030907008E+00   -5.8636416898024004E+00
C    3.8973188286548066E+01    7.3012784465901888E+00   -5.8832374841123958E+00
C    3.5369134349718266E+01    8.4947382506302329E+00   -5.9256573393375875E+00
C    3.6810720898317300E+01    8.5088536864756623E+00   -5.9080174968370684E+00
C    3.7510670490686465E+01    9.7264959112132132E+00   -6.0216079528566686E+00
C    3.8954015934593706E+01    9.7525513901384500E+00   -6.0042734038198056E+00
C    3.5382902039890169E+01    1.0998006562066850E+01   -5.9152489996010242E+00
C    3.6796302511383487E+01    1.0999808543873614E+01   -5.9478826773890070E+00
C    3.7510682008087763E+01    1.2250642153828379E+01   -6.0345775908371762E+00
C    3.8935493173678054E+01    1.2244799270491576E+01   -6.0146999785591628E+00
C    3.5412654730248008E+01    1.3502460277765884E+01   -5.9937729937744511E+00
C    3.6813523959001984E+01    1.3489164011737353E+01   -5.9883704223454863E+00
C    3.7562570751073473E+01    2.3480200401457330E+00   -5.5057908710853409E+00
C    3.8992248784439980E+01    2.3716862114587278E+00   -5.4936493185879476E+00
C    3.9700237240558899E+01    3.6009711774680557E+00   -5.5222942081585140E+00
C    4.1118619078293264E+01    3.5843256068002964E+00   -5.6902510524476986E+00
C    4.1810252029054169E+01    4.8028796930022111E+00   -5.7873597031823563E+00
C    4.3235435664667499E+01    4.8195065491020319E+00   -5.8474898898702170E+00
C    3.9651497910333369E+01    6.1044192328817681E+00   -5.7881226850979814E+00
C    4.1061259574628288E+01    6.0453385224998284E+00   -5.8038419389357419E+00
C    4.1757609798659729E+01    7.2961950989217215E+00   -5.9055783577074141E+00
C    4.3197864713137214E+01    7.3086867432817684E+00   -5.8369287190923336E+00
C    3.9682122521942894E+01    8.5397228306213133E+00   -5.8787671736533111E+00
C    4.1132220054873279E+01    8.5712033011151121E+00   -5.8352260148063388E+00
C    4.1793686945896546E+01    9.8462454124177761E+00   -5.7780343593285366E+00
C    4.3196072103800056E+01    9.8050563728676785E+00   -5.7838030365118449E+00
C    3.9709025014144885E+01    1.0992580666562331E+01   -5.9514621408841988E+00
C    4.1102479779261834E+01    1.1046587423388203E+01   -5.8217346014653613E+00
C    4.1786304465171433E+01    1.2282108388315869E+01   -5.8991166484977606E+00
C    4.3201054956975192E+01    1.2295082582268575E+01   -5.8415096371540693E+00
C    3.9685123011226807E+01    1.3475338055334820E+01   -6.0857406236245888E+00
C    4.1108352784854077E+01    1.3509446795830252E+01   -6.0869260693608496E+00
C    4.1807887120092850E+01    2.3362305673035992E+00   -5.7366174756099069E+00
C    4.3233319712980474E+01    2.3208424397196810E+00   -5.8289987761217077E+00
O    1.1311403223154483E+02    2.4844768967737778E+02    6.7004007834169252E+00
H    1.1227655855164765E+02    2.4785903234390810E+02    6.8156629678175040E+00
H    1.1319217568626166E+02    2.4832258805014482E+02    5.7858104839593594E+00
O    1.8743556262946038E+02    2.8049288089330122E+02    8.3709962017695929E+00
H    1.8828550171755100E+02    2.8067198747903444E+02    8.7647387486067192E+00
H    1.8701671312551295E+02    2.7977279048478221E+02    8.9258849827816604E+00
O    6.8190028282995300E+01    4.0990321940450076E+02    3.9688574275920607E+00
H    6.8072279010533578E+01    4.1046108208828485E+02    4.7518268109474198E+00
H    6.7328199917398692E+01    4.0989239526751118E+02    3.5070856419520888E+00
O    1.8919001051557669E+02    3.1075450274234925E+02   -2.7753722098905356E+00
H    1.9005831815556706E+02    3.1111649697503947E+02   -2.8487497161742086E+00
H    1.8898325727812821E+02    3.1099254496875983E+02   -1.8574904460628054E+00
O    1.3613156024509715E+02    3.4000919629244771E+02    9.4259957930903449E-01
H    1.3552725116668844E+02    3.4031785595496848E+02    1.7538434472988425E+00
H    1.3565663484788661E+02    3.3922031699341773E+02    6.3322427244400625E-01
O    7.2905066371891380E+01    2.2520787554187487E+02    5.1678216830597545E-01
H    7.1951282451835667E+01    2.2500254608969740E+02    7.6781629685849795E-01
H    7.2997663807738007E+01    2.2565081867013157E+02   -3.4491730984149527E-01
O    1.0091877436210314E+02    3.2923948486028104E+02   -2.6606701219950870E+00
H    1.0028778019558339E+02    3.2880897206062605E+02   -3.2587381079377113E+00
H    1.0113874470756595E+02    3.2860856789091468E+02   -1.9736459038456120E+00
O    1.1162338447094034E+02    2.4997148327023706E+02   -2.5126486047446308E+00
H    1.1073360287352421E+02    2.5030573399638334E+02   -2.1699253251559729E+00
H    1.1223498512272435E+02    2.5070835222068698E+02   -2.4546373509993384E+00
O    2.1246863985041458E+01    3.8128468442861231E+02   -9.2323792543216779E-02
H    2.1583384515528213E+01    3.8134973249410234E+02   -1.0399604717235529E+00
H    2.2088668623380862E+01    3.8097655291700818E+02    4.3486533826383439E-01
O    1.1585179777236630E+02    4.1645036265566171E+02    6.9228457634665497E-01
H    1.1498178101092543E+02    4.1654637219123322E+02    2.5395304547207881E-01
H    1.1649689968950453E+02    4.1702135429393030E+02    1.1617657570027118E-01
O    1.3400867568517785E+02    2.9789863367207073E+02    1.0881631351351865E+01
H    1.3415099799085525E+02    2.9735975942908743E+02    1.0084701571730335E+01
H    1.3492499496390772E+02    2.9830166662161099E+02    1.0921439028515564E+01
O    6.2532836327194850E+01    3.3961311349790861E+02   -2.6968349698762935E+00
H    6.2205250430031036E+01    3.4055280314438062E+02   -2.5736598249175739E+00
H    6.3397186380264202E+01    3.3966280563369133E+02   -2.2546140123661007E+00
O    2.6602909178668103E+01    2.2608290443786061E+02    1.0300057583056571E+01
H    2.6713345354089707E+01    2.2682209872031487E+02    1.0845526806251945E+01
H    2.5807342674019445E+01    2.2565706529794380E+02    1.0697962880345658E+01
O    1.6929882303899711E+02    2.0415928826519661E+02   -2.6904298887953244E+00
H    1.6954230717926126E+02    2.0317693494766681E+02   -2.8379812819322492E+00
H    1.7012895445321504E+02    2.0460480997392656E+02   -2.4504897305776043E+00
O    1.1679948122848222E+02    5.0658519753241006E+02   -2.4572399925217776E+00
H    1.1622993032852816E+02    5.0574387032913626E+02   -2.5313551495482400E+00
H    1.1616269193452096E+02    5.0724004443337418E+02   -2.8820113432417713E+00
O    1.6154879508655569E+02    3.5333220702122662E+02    3.7015302383646551E+00
H    1.6062399680482343E+02    3.5309964674988242E+02    3.7689677767023744E+00
H    1.6197893481497584E+02    3.5307507388791316E+02    4.6169656590169952E+00
O    1.1013503915864830E+02    3.4850134093050207E+02    1.2000341780802330E+00
H    1.0951145396419147E+02    3.4905986258571102E+02    1.6894325426508017E+00
H    1.0967622784819672E+02    3.4764304185120568E+02    1.0364911254706066E+00
O    3.3198768945358303E+01    2.9360261933983423E+02    3.1301090293804359E+00
H    3.3160488485618835E+01    2.9269806129892510E+02    3.5928033138749300E+00
H    3.2943661869694211E+01    2.9356100611856323E+02    2.1810789428817867E+00
O    7.1137443798961058E+01    3.1612363902266020E+02    5.9462066335847852E-01
H    7.1963526111189026E+01    3.1626327854906219E+02    1.0494906959881403E+00