 # Version information for this restart file 
 # current date 2020-01-19 14:05:24.323
 # current working dir /scratch/snx3000/gtocci/gtocci/MEMBRANES/AIMD_US_IONS_BN/aimd_us_iodide/us_12
 # Program compiled at                              Fri Nov 22 15:19:42 CET 2019
 # Program compiled on                                                  daint102
 # Program compiled for                                   CRAY_XC50-gfortran_gpu
 # Source code revision number                                       git:a698b45
 &GLOBAL
   PRINT_LEVEL  LOW
   PROJECT_NAME BNS
   RUN_TYPE  MD
   WALLTIME 86400
 &END GLOBAL
 &MOTION
   &MD
     ENSEMBLE  NVT
     STEPS  2000
     TIMESTEP     9.9999999999999989E-01
     STEP_START_VAL  42591
     TIME_START_VAL     4.2590999999988228E+04
     ECONS_START_VAL    -8.4829721487282404E+03
     TEMPERATURE     3.0000000000000000E+02
     TEMP_KIND  T
     &BAROSTAT
       PRESSURE     1.0000000000000000E+00
       TIMECON     9.9999999999999986E+01
       VIRIAL  Z
     &END BAROSTAT
     &THERMOSTAT
       TYPE  NOSE
       REGION  GLOBAL
       &NOSE
         LENGTH  4
         TIMECON     9.9999999999999986E+01
         MTS  2
         &COORD
               2.6363460266151478E-01    1.1633493764521374E+01    3.1332315927921666E+01   -2.9778141370054165E+01
         &END COORD
         &VELOCITY
               2.7835058447167615E-06   -1.1023717567506221E-04    1.5035533557457845E-04   -9.8850631573915932E-05
         &END VELOCITY
         &MASS
               7.0145132684705392E+07    1.6237299232570693E+04    1.6237299232570693E+04    1.6237299232570693E+04
         &END MASS
         &FORCE
               8.5612242617937373E-10   -2.5039065167792420E-08   -4.6357778949290543E-08   -3.5903286914360975E-08
         &END FORCE
       &END NOSE
     &END THERMOSTAT
     &AVERAGES  T
       &RESTART_AVERAGES
         ITIMES_START  1
         AVECPU     2.4498947642757479E+01
         AVEHUGONIOT     0.0000000000000000E+00
         AVETEMP_BARO     0.0000000000000000E+00
         AVEPOT    -8.4857924328422505E+03
         AVEKIN     2.0501752576928558E+00
         AVETEMP     2.9971915284133513E+02
         AVEKIN_QM     0.0000000000000000E+00
         AVETEMP_QM     0.0000000000000000E+00
         AVEVOL     2.2086622704881171E+05
         AVECELL_A     4.9287836997924963E+01
         AVECELL_B     4.7426456757032106E+01
         AVECELL_C     9.4486306644279694E+01
         AVEALPHA     9.0000000000000000E+01
         AVEBETA     9.0000000000000000E+01
         AVEGAMMA     9.0000000000000000E+01
         AVE_ECONS     3.5536345163507441E+01
         AVE_PRESS     0.0000000000000000E+00
         AVE_PXX     0.0000000000000000E+00
       &END RESTART_AVERAGES
     &END AVERAGES
     &PRINT
       &TEMP_KIND  SILENT
       &END TEMP_KIND
     &END PRINT
   &END MD
   &FREE_ENERGY
     &METADYN
       MIN_DISP    -1.0000000000000000E+00
       OLD_HILL_NUMBER  0
       OLD_HILL_STEP  0
       DO_HILLS  F
       STEP_START_VAL  42591
       NHILLS_START_VAL  0
       &METAVAR
         SCALE     1.0000000000000000E+00
         COLVAR  1
       &END METAVAR
       &PRINT
         &COLVAR  SILENT
           COMMON_ITERATION_LEVELS  3
           &EACH
             MD  1
           &END EACH
         &END COLVAR
       &END PRINT
     &END METADYN
   &END FREE_ENERGY
   &CONSTRAINT
     &COLLECTIVE
       COLVAR  1
       INTERMOLECULAR  T
       &RESTRAINT
         K     4.4625385281452931E-04
       &END RESTRAINT
     &END COLLECTIVE
     &COLVAR_RESTART
           1.1560690541266078E+01
     &END COLVAR_RESTART
   &END CONSTRAINT
   &PRINT
     &TRAJECTORY  SILENT
       &EACH
         MD  1
       &END EACH
     &END TRAJECTORY
     &VELOCITIES  SILENT
       &EACH
         MD  1
       &END EACH
     &END VELOCITIES
     &FORCES  SILENT
       UNIT eV*angstrom^-1
       &EACH
         MD  1
       &END EACH
     &END FORCES
     &RESTART  SILENT
       &EACH
         MD  1
       &END EACH
     &END RESTART
     &RESTART_HISTORY  SILENT
       &EACH
         MD  100
       &END EACH
     &END RESTART_HISTORY
   &END PRINT
 &END MOTION
 &FORCE_EVAL
   METHOD  QS
   &DFT
     BASIS_SET_FILE_NAME /users/gtocci/scratch_daint_3000/data_cp2k//BASIS_MOLOPT
     POTENTIAL_FILE_NAME /users/gtocci/scratch_daint_3000/data_cp2k//GTH_POTENTIALS
     WFN_RESTART_FILE_NAME ./BNS-RESTART.wfn
     CHARGE  -1
     &SCF
       MAX_SCF  10
       EPS_SCF     9.9999999999999995E-07
       SCF_GUESS  RESTART
       &OT  T
         MINIMIZER  DIIS
         PRECONDITIONER  FULL_KINETIC
       &END OT
       &OUTER_SCF  T
         EPS_SCF     9.9999999999999995E-07
         MAX_SCF  30
       &END OUTER_SCF
       &PRINT
         &RESTART  SILENT
           ADD_LAST  NUMERIC
           &EACH
             QS_SCF  50
           &END EACH
         &END RESTART
       &END PRINT
     &END SCF
     &QS
       MAP_CONSISTENT  T
       EXTRAPOLATION  ASPC
       EXTRAPOLATION_ORDER  4
     &END QS
     &MGRID
       NGRIDS  5
       CUTOFF     4.6000000000000000E+02
     &END MGRID
     &XC
       DENSITY_CUTOFF     1.0000000000000000E-10
       GRADIENT_CUTOFF     1.0000000000000000E-10
       TAU_CUTOFF     1.0000000000000000E-10
       &XC_GRID
         XC_DERIV  SPLINE2_SMOOTH
       &END XC_GRID
       &XC_FUNCTIONAL  NO_SHORTCUT
         &LIBXC  T
           FUNCTIONAL XC_GGA_X_OPTB88_VDW
         &END LIBXC
         &VWN  T
         &END VWN
       &END XC_FUNCTIONAL
       &VDW_POTENTIAL
         POTENTIAL_TYPE  NON_LOCAL
         &NON_LOCAL
           TYPE  DRSLL
           VERBOSE_OUTPUT  T
           KERNEL_FILE_NAME /users/gtocci/scratch_daint_3000/data_cp2k//vdW_kernel_table.dat
           CUTOFF     3.6000000000000000E+02
         &END NON_LOCAL
       &END VDW_POTENTIAL
     &END XC
     &REAL_TIME_PROPAGATION
       INITIAL_WFN  SCF_WFN
     &END REAL_TIME_PROPAGATION
     &PRINT
       &MULLIKEN  SILENT
         FILENAME =BNS.mulliken
       &END MULLIKEN
     &END PRINT
   &END DFT
   &SUBSYS
     &CELL
       A     2.6082000000000019E+01    0.0000000000000000E+00    0.0000000000000000E+00
       B     0.0000000000000000E+00    2.5097000000000001E+01    0.0000000000000000E+00
       C     0.0000000000000000E+00    0.0000000000000000E+00    5.0000000000000028E+01
       MULTIPLE_UNIT_CELL  1 1 1
     &END CELL
     &COORD
B   -1.1557634104981087E+01    1.4595554895723684E+01   -2.5662436324478282E+01
B   -9.4089451849419312E+00    1.5895872811540643E+01   -2.5839419963232899E+01
B   -1.1589291305118085E+01    1.7113371709084959E+01   -2.5685217784174398E+01
B   -9.4448734146766213E+00    1.8404123240286484E+01   -2.5971965861616138E+01
B   -1.1633954480662497E+01    1.9607797136149355E+01   -2.5644130931185934E+01
B   -9.4282284104806653E+00    2.0967551902168818E+01   -2.5802659801340230E+01
B   -1.1616103671051389E+01    2.2093437012762095E+01   -2.5510286778522506E+01
B   -9.5049904966397154E+00    2.3449399443055324E+01   -2.5536211127872782E+01
B   -1.1611002560246400E+01    2.4683826883814241E+01   -2.5468013356926242E+01
B   -9.4258850217152563E+00    2.5984829574061830E+01   -2.5380173975087029E+01
B   -7.2292479504236651E+00    1.4623528501912306E+01   -2.5697332977776590E+01
B   -5.1018305805599420E+00    1.5869675306437978E+01   -2.5753179702997858E+01
B   -7.2403361510180346E+00    1.7183096688831860E+01   -2.5991392745533137E+01
B   -5.0951170578024012E+00    1.8415424084989073E+01   -2.6047979719893199E+01
B   -7.3231748328306550E+00    1.9670941133386847E+01   -2.6138979587343950E+01
B   -5.0734484462117768E+00    2.0876008844489036E+01   -2.5861900385896504E+01
B   -7.3617880934372666E+00    2.2161057777919666E+01   -2.5722366279965094E+01
B   -5.1568094619933653E+00    2.3408324418986926E+01   -2.5406496369046092E+01
B   -7.2891488110284994E+00    2.4672365183868489E+01   -2.5390219528979376E+01
B   -5.1042872890749305E+00    2.5928967361540781E+01   -2.5157045125709971E+01
B   -2.9083685863013575E+00    1.4645628214144613E+01   -2.5855150752783537E+01
B   -7.9638509363665255E-01    1.5899147966872841E+01   -2.5913412001292571E+01
B   -2.9685623170027693E+00    1.7159154460568303E+01   -2.5769285306180599E+01
B   -8.0247741054318744E-01    1.8422939756929669E+01   -2.5715943837369103E+01
B   -2.9301648337281838E+00    1.9636853884296151E+01   -2.5676870783333964E+01
B   -7.7066122802996784E-01    2.0926574517558855E+01   -2.5409800784717660E+01
B   -2.9060429854654477E+00    2.2198258489176212E+01   -2.5546138516541028E+01
B   -7.8708635350940104E-01    2.3446948353191001E+01   -2.5382183253003266E+01
B   -2.9457494521829917E+00    2.4655643992156065E+01   -2.5208721602656862E+01
B   -7.8747915276311586E-01    2.6003712495653748E+01   -2.5332125941430313E+01
N   -1.0162020878348519E+01    1.4571260667584331E+01   -2.5791799105250380E+01
N   -7.9414201141125531E+00    1.5915116972994635E+01   -2.5869242064065403E+01
N   -1.0128137922221056E+01    1.7139635899887477E+01   -2.5769788276872372E+01
N   -7.9865640339831154E+00    1.8380475483456799E+01   -2.6130011939033345E+01
N   -1.0179275820950192E+01    1.9680676659805435E+01   -2.5950178187355242E+01
N   -8.0269422086881352E+00    2.0894337606352600E+01   -2.5907015919742953E+01
N   -1.0196181574918642E+01    2.2140444353664584E+01   -2.5567074150085418E+01
N   -8.0030050825501338E+00    2.3433580174291983E+01   -2.5650390713308457E+01
N   -1.0171726776369093E+01    2.4735620213445593E+01   -2.5349907951094607E+01
N   -7.9639540416385204E+00    2.5944986056594445E+01   -2.5282657603196807E+01
N   -5.8065103191507452E+00    1.4653532649296082E+01   -2.5676429707572595E+01
N   -3.6419968957481941E+00    1.5871432616120970E+01   -2.5793950469309475E+01
N   -5.7821789526259533E+00    1.7145051182984890E+01   -2.5944136759657464E+01
N   -3.6590482876902937E+00    1.8424185961056960E+01   -2.5903357767642209E+01
N   -5.8168039549146968E+00    1.9668645777040442E+01   -2.6165917900713751E+01
N   -3.6463968337443164E+00    2.0911100021655837E+01   -2.5544658655295628E+01
N   -5.8383472694600744E+00    2.2129272719230688E+01   -2.5637036714908110E+01
N   -3.7079992706544584E+00    2.3438994664441939E+01   -2.5315851097605002E+01
N   -5.8837454061412231E+00    2.4633497429675934E+01   -2.5217676586783348E+01
N   -3.7058237059676213E+00    2.5896300191091854E+01   -2.5154701174383703E+01
N   -1.5056024689389051E+00    1.4597688628228536E+01   -2.5888632422683791E+01
N    6.9788661371055927E-01    1.5909668036176011E+01   -2.5843500409667744E+01
N   -1.5277841569284081E+00    1.7206461502916600E+01   -2.5831901871658328E+01
N    6.6257184930067703E-01    1.8402618834514790E+01   -2.5580874658586097E+01
N   -1.4845999572321884E+00    1.9635319873064670E+01   -2.5612721311822124E+01
N    6.5947063377790949E-01    2.0908531361589144E+01   -2.5214546801870718E+01
N   -1.5066412146959232E+00    2.2184973316073201E+01   -2.5450961796757618E+01
N    6.5487474444741089E-01    2.3356762688593015E+01   -2.5379377842177238E+01
N   -1.5009118763958800E+00    2.4711192282940484E+01   -2.5350123246422559E+01
N    6.8406262433559106E-01    2.5927725308937550E+01   -2.5217408256837995E+01
B   -1.1635529570991210E+01    2.7173194000603324E+01   -2.5404720582174249E+01
B   -9.4592496696774742E+00    2.8457825842308903E+01   -2.5207140510517320E+01
B   -1.1641646616615340E+01    2.9660065291964973E+01   -2.5260115318950415E+01
B   -9.4981161314581346E+00    3.0939251399927727E+01   -2.5192175766045033E+01
B   -1.1623369060156401E+01    3.2203186137420552E+01   -2.5258029977664531E+01
B   -9.4812809885611546E+00    3.3452650897528905E+01   -2.5306023493943854E+01
B   -1.1617106953652629E+01    3.4684808192594772E+01   -2.5338426018258410E+01
B   -9.4116150942801831E+00    3.6025910862954952E+01   -2.5359415267565204E+01
B   -1.1594846149673426E+01    3.7193562027338196E+01   -2.5434192108100252E+01
B   -9.4239051096736386E+00    3.8493124611669828E+01   -2.5508693794855727E+01
B   -7.2313619615278117E+00    2.7178763395825072E+01   -2.5218249216849962E+01
B   -5.0801467735682131E+00    2.8442254410008804E+01   -2.5211542334301964E+01
B   -7.2251805397844340E+00    2.9670176609943159E+01   -2.5154438446082310E+01
B   -5.1059277018091169E+00    3.0932501134242887E+01   -2.5185825810900987E+01
B   -7.3127209335038748E+00    3.2163204082742205E+01   -2.5122992193499428E+01
B   -5.1173456121878704E+00    3.3425183688302411E+01   -2.5299042733728900E+01
B   -7.2715365513721304E+00    3.4702801819211984E+01   -2.5293944880298898E+01
B   -5.0498601289105176E+00    3.5959960888077354E+01   -2.5460233364089834E+01
B   -7.2210257698147258E+00    3.7294942100627722E+01   -2.5356836326733685E+01
B   -5.0847807058232206E+00    3.8501491060167233E+01   -2.5648078964425025E+01
B   -2.9708782178708817E+00    2.7138034184583358E+01   -2.5238832808935054E+01
B   -7.5743585117599299E-01    2.8484373511123295E+01   -2.5344684463295913E+01
B   -2.9208784199012752E+00    2.9644719170924986E+01   -2.5363301539886475E+01
B   -7.6261775299209300E-01    3.0942766926724428E+01   -2.5403896279035305E+01
B   -2.9575761655011528E+00    3.2141242936123724E+01   -2.5318917031620998E+01
B   -7.6240131714455106E-01    3.3404711313064439E+01   -2.5620775266921445E+01
B   -2.9429492256607186E+00    3.4659185328778221E+01   -2.5539357019849579E+01
B   -7.7884519834486488E-01    3.5913825579527170E+01   -2.5682837894605772E+01
B   -2.9581258237790791E+00    3.7236968991956012E+01   -2.5677584628908647E+01
B   -7.3051693135525575E-01    3.8443435303008123E+01   -2.5756666280037951E+01
N   -1.0152952209073662E+01    2.7206782813519570E+01   -2.5412739366864177E+01
N   -7.9507176062272586E+00    2.8443680036381231E+01   -2.5074440398287884E+01
N   -1.0194479301609926E+01    2.9673167449124922E+01   -2.5294633926587757E+01
N   -8.0155132739075974E+00    3.0888196529840009E+01   -2.5252518658233196E+01
N   -1.0196946979461430E+01    3.2206803037112657E+01   -2.5203982971500434E+01
N   -8.0076620177314037E+00    3.3465003612404317E+01   -2.5310321403936545E+01
N   -1.0153450819113107E+01    3.4770370784778109E+01   -2.5359853788122177E+01
N   -7.9318373078950986E+00    3.6016304128713038E+01   -2.5259636621797981E+01
N   -1.0123290939023871E+01    3.7241354692752083E+01   -2.5441382266298707E+01
N   -7.9734273095761710E+00    3.8506797182836486E+01   -2.5430784375530738E+01
N   -5.7751370831012450E+00    2.7150183956382371E+01   -2.5192201961594531E+01
N   -3.6399567537204827E+00    2.8390858028553200E+01   -2.5330694571657776E+01
N   -5.7980472667920049E+00    2.9677955911261915E+01   -2.5188441461189306E+01
N   -3.6289298172948650E+00    3.0899536480306686E+01   -2.5288054305216722E+01
N   -5.8628143473093539E+00    3.2194498987503529E+01   -2.5075618888030995E+01
N   -3.6813262070407036E+00    3.3414896108408968E+01   -2.5328149581961469E+01
N   -5.7873041328957484E+00    3.4689211403552889E+01   -2.5344932783780379E+01
N   -3.6369334305653434E+00    3.5950537523677774E+01   -2.5583142411388838E+01
N   -5.8037891265660129E+00    3.7219825971995107E+01   -2.5501259115321407E+01
N   -3.6472982140283885E+00    3.8474759915294754E+01   -2.5877462300220134E+01
N   -1.5017564056996715E+00    2.7223266059949822E+01   -2.5246410266596563E+01
N    6.8908133586062370E-01    2.8448734008412082E+01   -2.5448232642330638E+01
N   -1.4776979647779322E+00    2.9699689504519196E+01   -2.5321474877520060E+01
N    7.1707247961002252E-01    3.0951759210967257E+01   -2.5459666105191104E+01
N   -1.5078462115930182E+00    3.2181766697450662E+01   -2.5530345877131364E+01
N    7.0127941849932462E-01    3.3360419032450537E+01   -2.5631364903288340E+01
N   -1.5213457962473811E+00    3.4620305722598140E+01   -2.5728775634925483E+01
N    6.8016228226796782E-01    3.5850780509318405E+01   -2.5670344987305963E+01
N   -1.4818915705571039E+00    3.7189995822753637E+01   -2.5727816265174500E+01
N    7.1219929802138604E-01    3.8497665521112772E+01   -2.5737088917395049E+01
B    1.4416044121262108E+00    1.4669532687894131E+01   -2.5814184867322567E+01
B    3.5165527596114012E+00    1.5861809459231495E+01   -2.5471212466415722E+01
B    1.3762333970743310E+00    1.7109123916012170E+01   -2.5558917677181171E+01
B    3.5288939705480544E+00    1.8321075114585568E+01   -2.5256444633740710E+01
B    1.3726165946690743E+00    1.9591421417610054E+01   -2.5379742730643148E+01
B    3.5988192166598796E+00    2.0871502601052303E+01   -2.5166891105546746E+01
B    1.3974840244442823E+00    2.2171171057353060E+01   -2.5230541155063278E+01
B    3.6238419229920553E+00    2.3380634606408577E+01   -2.5163690271372342E+01
B    1.3763712687156311E+00    2.4604362370635076E+01   -2.5172829066712620E+01
B    3.5776536574259077E+00    2.5921745063886764E+01   -2.5017138353095838E+01
B    5.7040656327198898E+00    1.4656850883460482E+01   -2.5514552620568761E+01
B    7.9309486473138087E+00    1.5863536905049729E+01   -2.5356602099156788E+01
B    5.6987396689476544E+00    1.7164042296825393E+01   -2.5275061848965315E+01
B    7.9468680679064976E+00    1.8388335801825981E+01   -2.5160531590750409E+01
B    5.7519353691084083E+00    1.9623809207088797E+01   -2.5062604337738907E+01
B    7.9550199831943154E+00    2.0860939933520612E+01   -2.5151179202783467E+01
B    5.7518169993589039E+00    2.2132796557786055E+01   -2.5050138625428154E+01
B    7.9263832409733856E+00    2.3369242031145657E+01   -2.5234956078567702E+01
B    5.7579006620624122E+00    2.4634831852070210E+01   -2.5253362293184747E+01
B    7.8982785886472886E+00    2.5908443499944116E+01   -2.5401358529805730E+01
B    1.0106301933955587E+01    1.4583069816628056E+01   -2.5410758999854597E+01
B    1.2297428600178751E+01    1.5851168298928291E+01   -2.5543115428372090E+01
B    1.0092015906947424E+01    1.7159162645296195E+01   -2.5381361454941217E+01
B    1.2319557062302454E+01    1.8375374157369485E+01   -2.5557533869688644E+01
B    1.0162955701351034E+01    1.9631791398879077E+01   -2.5443121464103498E+01
B    1.2314117232963538E+01    2.0823141943779099E+01   -2.5561652886906543E+01
B    1.0132201058074864E+01    2.2140178319689941E+01   -2.5413898368523242E+01
B    1.2263187157858523E+01    2.3352690110139442E+01   -2.5573655133150623E+01
B    1.0111947829454323E+01    2.4620089142377285E+01   -2.5446210175288442E+01
B    1.2277263275036825E+01    2.5874145210382508E+01   -2.5478134917224725E+01
N    2.8649613849888564E+00    1.4632441514347642E+01   -2.5738736231940134E+01
N    4.9651953820359269E+00    1.5871958321317432E+01   -2.5476893349167799E+01
N    2.8193893436225315E+00    1.7074659982914220E+01   -2.5333952642244604E+01
N    5.0330228137813604E+00    1.8396848292181165E+01   -2.5227021330355761E+01
N    2.8077099515058439E+00    1.9599422987997013E+01   -2.5269225274025118E+01
N    5.0489864227531518E+00    2.0900881621629431E+01   -2.5040300443056207E+01
N    2.8768980505676174E+00    2.2116279759217740E+01   -2.5183410182371222E+01
N    5.0315129172069017E+00    2.3388503752261901E+01   -2.5081919952894467E+01
N    2.8319902449104375E+00    2.4634032484609044E+01   -2.5130371787867269E+01
N    5.0278637584895876E+00    2.5874722112171959E+01   -2.5150865603027174E+01
N    7.1932531390442778E+00    1.4623836710976398E+01   -2.5463140360609628E+01
N    9.3669095883049813E+00    1.5880244948184131E+01   -2.5427041374706018E+01
N    7.2045871075377832E+00    1.7137277359582473E+01   -2.5281814111465209E+01
N    9.3797397841424761E+00    1.8393246657211176E+01   -2.5353467507049011E+01
N    7.2049854026691218E+00    1.9642285733172002E+01   -2.5082753616901165E+01
N    9.3679202224170695E+00    2.0863273837886471E+01   -2.5465822414772056E+01
N    7.2431634266914209E+00    2.2145949616764934E+01   -2.5065770031629434E+01
N    9.3940937327824319E+00    2.3373057569624301E+01   -2.5450059903000028E+01
N    7.1938780030865681E+00    2.4629441079251325E+01   -2.5347262641846893E+01
N    9.3790665073295543E+00    2.5900084039261301E+01   -2.5472629182190555E+01
N    1.1561925276522473E+01    1.4597530757989890E+01   -2.5465052693120107E+01
N    1.3738578909063889E+01    1.5855074492232999E+01   -2.5674405097446648E+01
N    1.1590667073609957E+01    1.7110301497429450E+01   -2.5484558068609918E+01
N    1.3761154214388682E+01    1.8314380955728971E+01   -2.5523884301799558E+01
N    1.1607999237523341E+01    1.9616890472222700E+01   -2.5528511139994972E+01
N    1.3732088199348262E+01    2.0847529720563198E+01   -2.5529837075487855E+01
N    1.1548296333297321E+01    2.2057374338128948E+01   -2.5463367769908999E+01
N    1.3708822987285789E+01    2.3390472347566138E+01   -2.5482273349329120E+01
N    1.1540417277088050E+01    2.4611831401191932E+01   -2.5584232465860193E+01
N    1.3721026674477624E+01    2.5865283538072337E+01   -2.5405870776244992E+01
B    1.4691875660592282E+00    2.7199768405632899E+01   -2.5218826194869898E+01
B    3.5869600088870208E+00    2.8443339616022172E+01   -2.5187209525508294E+01
B    1.4045598169197764E+00    2.9704091625879361E+01   -2.5258773097053702E+01
B    3.6773979172335585E+00    3.0873484257524616E+01   -2.5258710938038721E+01
B    1.4620760791555136E+00    3.2154036848734513E+01   -2.5499337162513637E+01
B    3.5937379074691642E+00    3.3410046681057523E+01   -2.5424509341215636E+01
B    1.3760825636239664E+00    3.4629035038011189E+01   -2.5583821944977728E+01
B    3.6308405547706819E+00    3.5972632382849710E+01   -2.5552593242975146E+01
B    1.3920137423128041E+00    3.7198505587587050E+01   -2.5638061054490244E+01
B    3.5767824469004847E+00    3.8422503378364659E+01   -2.5663331076106232E+01
B    5.7474657401044071E+00    2.7134504443391371E+01   -2.5160669607602571E+01
B    8.0142456574645422E+00    2.8409806112189557E+01   -2.5296878325044226E+01
B    5.8046967645777041E+00    2.9655145185295765E+01   -2.5043373682965221E+01
B    8.0121899860429604E+00    3.0936267852979736E+01   -2.5204541528856979E+01
B    5.7699406764772352E+00    3.2216455122937447E+01   -2.5266016215704344E+01
B    8.0007350387557388E+00    3.3402072912013011E+01   -2.5303812823853473E+01
B    5.7936108665841450E+00    3.4661103585154876E+01   -2.5468406125260170E+01
B    7.9381060401598376E+00    3.5905471213912001E+01   -2.5399153014664360E+01
B    5.7417474795120835E+00    3.7189880520887257E+01   -2.5596706639893576E+01
B    7.9021511422130759E+00    3.8423678347973528E+01   -2.5416470201156475E+01
B    1.0143000227750306E+01    2.7104023077208392E+01   -2.5411138355608756E+01
B    1.2286880286593263E+01    2.8442529738528737E+01   -2.5339401824410803E+01
B    1.0139661086621274E+01    2.9678558030136518E+01   -2.5299242864269075E+01
B    1.2312913525865264E+01    3.0911750864784654E+01   -2.5222220401421659E+01
B    1.0148196448814984E+01    3.2129760272640148E+01   -2.5164800925206560E+01
B    1.2323476320023506E+01    3.3474496254657225E+01   -2.5303798823294063E+01
B    1.0124129119149078E+01    3.4689210256436432E+01   -2.5258988743773973E+01
B    1.2292798846775657E+01    3.5911237455391984E+01   -2.5443772388719580E+01
B    1.0052129514194087E+01    3.7188464343704212E+01   -2.5310916172556659E+01
B    1.2288267567138188E+01    3.8464568838726848E+01   -2.5497510280824596E+01
N    2.9524066212013795E+00    2.7140316831996884E+01   -2.5157677285382707E+01
N    5.0389005636636357E+00    2.8448051261921837E+01   -2.5063674601760866E+01
N    2.8757072582794136E+00    2.9659485718142701E+01   -2.5234959497527917E+01
N    5.1309672978429290E+00    3.0906183621536265E+01   -2.5088519547834125E+01
N    2.9252986692725917E+00    3.2158904722912816E+01   -2.5434818587095606E+01
N    5.0408359335453907E+00    3.3449730283798822E+01   -2.5446250249515142E+01
N    2.8926690853877699E+00    3.4651177374382087E+01   -2.5443544734989583E+01
N    5.0302420284522835E+00    3.5929336456278065E+01   -2.5623754896913429E+01
N    2.8608625895161488E+00    3.7179772610028685E+01   -2.5591047484574723E+01
N    5.0060247218633762E+00    3.8479537534855744E+01   -2.5709326922260079E+01
N    7.1877873173067339E+00    2.7138439720606897E+01   -2.5285826168058456E+01
N    9.4343550030926604E+00    2.8378070375902329E+01   -2.5348105808531290E+01
N    7.2719727248149457E+00    2.9710900997436852E+01   -2.5167443289521156E+01
N    9.4583237608929700E+00    3.0889361997839874E+01   -2.5259956347135983E+01
N    7.2388113209170193E+00    3.2204832249549987E+01   -2.5167120397831638E+01
N    9.4114693925078186E+00    3.3422246500306954E+01   -2.5191400139118318E+01
N    7.2587170584574521E+00    3.4622114958556729E+01   -2.5508364560892087E+01
N    9.4082008377320250E+00    3.5943860494559203E+01   -2.5248655415950950E+01
N    7.1805477775094255E+00    3.7168878942987902E+01   -2.5458796688463760E+01
N    9.3711536938645459E+00    3.8441461891938438E+01   -2.5334387997810108E+01
N    1.1601018848740672E+01    2.7136614770957646E+01   -2.5490154981277538E+01
N    1.3741946041166511E+01    2.8397658064984991E+01   -2.5354399760003528E+01
N    1.1584053541213548E+01    2.9663924949024331E+01   -2.5310012472586070E+01
N    1.3747255422547134E+01    3.0932935667627131E+01   -2.5234074815469743E+01
N    1.1595883918783320E+01    3.2188886958049679E+01   -2.5249438584170601E+01
N    1.3736354214097302E+01    3.3459125845510172E+01   -2.5260382043415675E+01
N    1.1544729949014316E+01    3.4718207432654303E+01   -2.5353135167994171E+01
N    1.3763121547662086E+01    3.5931305535560519E+01   -2.5391971832383195E+01
N    1.1538979843214221E+01    3.7220541277520788E+01   -2.5422650077798139E+01
N    1.3754812790675791E+01    3.8450915992035043E+01   -2.5400942298461533E+01
O   -8.0201523524438709E+00    5.5634808134780272E+01   -9.6538909172438352E+00
H   -8.2827008605196966E+00    5.6373474799401855E+01   -9.0706301052301441E+00
H   -7.0809242706646494E+00    5.5308074491910638E+01   -9.3810280518531624E+00
O   -1.2298400231360742E+00    5.4846578995676907E+01   -2.1356721496900359E+01
H   -8.8375357677198507E-01    5.5814208704423045E+01   -2.1457169955022081E+01
H   -4.6865852270162317E-01    5.4429598484346755E+01   -2.1795213132496961E+01
O    1.2520472125609441E+01   -1.0644922633729189E+01   -1.3595489728929017E+01
H    1.1990827847668960E+01   -9.8413936967826743E+00   -1.3442338158263576E+01
H    1.1996611839034488E+01   -1.1491979336765999E+01   -1.3398713982759375E+01
O    2.4171977108485809E+01    6.1066335856769371E+01   -8.4861627921155272E+00
H    2.4802307641095826E+01    6.1778187239892581E+01   -8.3961170102935903E+00
H    2.4630778332738092E+01    6.0220003740772142E+01   -8.4025513265086165E+00
O    5.9606886644419866E+01    2.1086535579460808E+01   -1.6352701891484806E+01
H    5.9917812569904946E+01    2.1038751015676969E+01   -1.7299179488905576E+01
H    5.8628153664385579E+01    2.1153571483807649E+01   -1.6423701066100620E+01
O    2.0543475261240907E+01    6.3177843514501056E+01   -2.0734094162053832E+01
H    2.0521501803618733E+01    6.2464837926233372E+01   -2.0025278545052224E+01
H    1.9570714685323100E+01    6.3466878625895937E+01   -2.0816986949335121E+01
O    3.4556841310574818E+01   -3.2490287838727838E+01   -2.1758768118732693E+01
H    3.4441898854814340E+01   -3.2755911149583397E+01   -2.0794709988745655E+01
H    3.4200536819482160E+01   -3.3325301362091729E+01   -2.2129852298314578E+01
O    3.4652202335822146E+01    7.9047609391275870E+01   -2.1695693962066038E+01
H    3.5584472093199672E+01    7.8756935047237704E+01   -2.1893259353722204E+01
H    3.4034484350124735E+01    7.8482126361782278E+01   -2.2259326715693135E+01
O    3.9884765847964573E+01    7.6712266108693356E+01   -1.7804422423525171E+01
H    4.0684440646553007E+01    7.6222881738190239E+01   -1.7622602833819862E+01
H    3.9682076871501479E+01    7.7120297034068571E+01   -1.6968619244914787E+01
O   -2.9638188803665289E+00    5.3732516466069889E+01   -1.5917242240237849E+01
H   -2.7992429073618958E+00    5.3972804819086058E+01   -1.4953100287194369E+01
H   -3.1325190823433724E+00    5.2773085026872828E+01   -1.5770756203059559E+01
O   -3.1349571158252257E+01    4.8817831934678850E+01   -1.6214933330038786E+01
H   -3.1471547331428738E+01    4.7857041986682830E+01   -1.6531413112479498E+01
H   -3.0376519746246434E+01    4.8809285296026609E+01   -1.5961185852306834E+01
O    7.5157423985574052E+00    4.0488951374636244E+01   -2.2243985873449713E+01
H    6.6315340716384963E+00    4.0000691079843101E+01   -2.2329281673749808E+01
H    8.2192742553413023E+00    3.9822091508779572E+01   -2.2293723853223948E+01
O    2.8665466783736672E+01    2.8721783900447278E+01   -9.2753620244731660E+00
H    2.9519358586493535E+01    2.8656558533050482E+01   -9.7626837296676907E+00
H    2.8451278255772902E+01    2.9630738374161677E+01   -8.9952673757363453E+00
O    4.3116402965332217E+00    4.0738468249099924E+00   -1.6006644627054072E+01
H    4.7204855625767337E+00    4.2214931619572109E+00   -1.5090478932721036E+01
H    3.4415708112360281E+00    4.5540024787086137E+00   -1.5978828679345904E+01
O    1.6500792440214624E+00    1.0316643455723147E+01   -2.1923876197159892E+01
H    9.8435118232649943E-01    1.0907363276985485E+01   -2.2398509217354803E+01
H    2.4933407599802204E+00    1.0730736892751121E+01   -2.2118424649372422E+01
O   -1.4071065346868156E+01    4.1507326890858543E+01   -2.1750283246954570E+01
H   -1.3103404429107769E+01    4.1496161770658354E+01   -2.2084733199379674E+01
H   -1.4443411053781292E+01    4.0637286834521923E+01   -2.2075543577714996E+01
O    2.3889931235121548E+01    1.2000013994012915E+02   -1.5039977372885355E+01
H    2.3612498837664006E+01    1.1927500507877488E+02   -1.5645462199273366E+01
H    2.3499063055513350E+01    1.2087554575698216E+02   -1.5454662306161197E+01
O    2.4360972700739090E+01    1.0296787922758789E+02   -6.9093170460231841E+00
H    2.4417081035050774E+01    1.0198429055324286E+02   -7.0804738196434487E+00
H    2.4886109353304700E+01    1.0331759944349805E+02   -7.6855995333821046E+00
O    2.4707116225097788E+01    4.9904521857965570E+01   -1.7104608900481924E+01