 # Version information for this restart file 
 # current date 2020-01-25 15:13:19.161
 # current working dir /scratch/snx3000/gtocci/gtocci/MEMBRANES/AIMD_US_IONS_BN/aimd_us_iodide/us_13
 # Program compiled at                              Fri Nov 22 15:19:42 CET 2019
 # Program compiled on                                                  daint102
 # Program compiled for                                   CRAY_XC50-gfortran_gpu
 # Source code revision number                                       git:a698b45
 &GLOBAL
   PRINT_LEVEL  LOW
   PROJECT_NAME BNS
   RUN_TYPE  MD
   WALLTIME 86400
 &END GLOBAL
 &MOTION
   &MD
     ENSEMBLE  NVT
     STEPS  2000
     TIMESTEP     9.9999999999999989E-01
     STEP_START_VAL  43416
     TIME_START_VAL     4.3415999999986954E+04
     ECONS_START_VAL    -8.4829014060096797E+03
     TEMPERATURE     3.0000000000000000E+02
     TEMP_KIND  T
     &BAROSTAT
       PRESSURE     1.0000000000000000E+00
       TIMECON     9.9999999999999986E+01
       VIRIAL  Z
     &END BAROSTAT
     &THERMOSTAT
       TYPE  NOSE
       REGION  GLOBAL
       &NOSE
         LENGTH  4
         TIMECON     9.9999999999999986E+01
         MTS  2
         &COORD
               3.5055987794380933E-01    2.0680945626224077E+01    2.0625071402402320E+00   -1.0217623163675553E+01
         &END COORD
         &VELOCITY
               3.4090700529712422E-06    2.5399602447136274E-05   -4.7089975817458992E-05    2.7880375909297201E-04
         &END VELOCITY
         &MASS
               7.0145132684705392E+07    1.6237299232570693E+04    1.6237299232570693E+04    1.6237299232570693E+04
         &END MASS
         &FORCE
               5.3663572199265326E-10   -8.3040165855027645E-09   -5.7864874045632499E-08   -5.6292548027616194E-08
         &END FORCE
       &END NOSE
     &END THERMOSTAT
     &AVERAGES  T
       &RESTART_AVERAGES
         ITIMES_START  1
         AVECPU     2.3232520113562892E+01
         AVEHUGONIOT     0.0000000000000000E+00
         AVETEMP_BARO     0.0000000000000000E+00
         AVEPOT    -8.4857866288094137E+03
         AVEKIN     2.0532025393588667E+00
         AVETEMP     3.0016171710161643E+02
         AVEKIN_QM     0.0000000000000000E+00
         AVETEMP_QM     0.0000000000000000E+00
         AVEVOL     2.2086622704881287E+05
         AVECELL_A     4.9287836997924899E+01
         AVECELL_B     4.7426456757032106E+01
         AVECELL_C     9.4486306644279694E+01
         AVEALPHA     9.0000000000000000E+01
         AVEBETA     9.0000000000000000E+01
         AVEGAMMA     9.0000000000000000E+01
         AVE_ECONS     5.4388353387202272E+01
         AVE_PRESS     0.0000000000000000E+00
         AVE_PXX     0.0000000000000000E+00
       &END RESTART_AVERAGES
     &END AVERAGES
     &PRINT
       &TEMP_KIND  SILENT
       &END TEMP_KIND
     &END PRINT
   &END MD
   &FREE_ENERGY
     &METADYN
       MIN_DISP    -1.0000000000000000E+00
       OLD_HILL_NUMBER  0
       OLD_HILL_STEP  0
       DO_HILLS  F
       STEP_START_VAL  43416
       NHILLS_START_VAL  0
       &METAVAR
         SCALE     1.0000000000000000E+00
         COLVAR  1
       &END METAVAR
       &PRINT
         &COLVAR  SILENT
           COMMON_ITERATION_LEVELS  3
           &EACH
             MD  1
           &END EACH
         &END COLVAR
       &END PRINT
     &END METADYN
   &END FREE_ENERGY
   &CONSTRAINT
     &COLLECTIVE
       COLVAR  1
       INTERMOLECULAR  T
       &RESTRAINT
         K     4.4625385281452931E-04
       &END RESTRAINT
     &END COLLECTIVE
     &COLVAR_RESTART
           1.2505553607708899E+01
     &END COLVAR_RESTART
   &END CONSTRAINT
   &PRINT
     &TRAJECTORY  SILENT
       &EACH
         MD  1
       &END EACH
     &END TRAJECTORY
     &VELOCITIES  SILENT
       &EACH
         MD  1
       &END EACH
     &END VELOCITIES
     &FORCES  SILENT
       UNIT eV*angstrom^-1
       &EACH
         MD  1
       &END EACH
     &END FORCES
     &RESTART  SILENT
       &EACH
         MD  1
       &END EACH
     &END RESTART
     &RESTART_HISTORY  SILENT
       &EACH
         MD  100
       &END EACH
     &END RESTART_HISTORY
   &END PRINT
 &END MOTION
 &FORCE_EVAL
   METHOD  QS
   &DFT
     BASIS_SET_FILE_NAME /users/gtocci/scratch_daint_3000/data_cp2k//BASIS_MOLOPT
     POTENTIAL_FILE_NAME /users/gtocci/scratch_daint_3000/data_cp2k//GTH_POTENTIALS
     WFN_RESTART_FILE_NAME ./BNS-RESTART.wfn
     CHARGE  -1
     &SCF
       MAX_SCF  10
       EPS_SCF     9.9999999999999995E-07
       SCF_GUESS  RESTART
       &OT  T
         MINIMIZER  DIIS
         PRECONDITIONER  FULL_KINETIC
       &END OT
       &OUTER_SCF  T
         EPS_SCF     9.9999999999999995E-07
         MAX_SCF  30
       &END OUTER_SCF
       &PRINT
         &RESTART  SILENT
           ADD_LAST  NUMERIC
           &EACH
             QS_SCF  50
           &END EACH
         &END RESTART
       &END PRINT
     &END SCF
     &QS
       MAP_CONSISTENT  T
       EXTRAPOLATION  ASPC
       EXTRAPOLATION_ORDER  4
     &END QS
     &MGRID
       NGRIDS  5
       CUTOFF     4.6000000000000000E+02
     &END MGRID
     &XC
       DENSITY_CUTOFF     1.0000000000000000E-10
       GRADIENT_CUTOFF     1.0000000000000000E-10
       TAU_CUTOFF     1.0000000000000000E-10
       &XC_GRID
         XC_DERIV  SPLINE2_SMOOTH
       &END XC_GRID
       &XC_FUNCTIONAL  NO_SHORTCUT
         &LIBXC  T
           FUNCTIONAL XC_GGA_X_OPTB88_VDW
         &END LIBXC
         &VWN  T
         &END VWN
       &END XC_FUNCTIONAL
       &VDW_POTENTIAL
         POTENTIAL_TYPE  NON_LOCAL
         &NON_LOCAL
           TYPE  DRSLL
           VERBOSE_OUTPUT  T
           KERNEL_FILE_NAME /users/gtocci/scratch_daint_3000/data_cp2k//vdW_kernel_table.dat
           CUTOFF     3.6000000000000000E+02
         &END NON_LOCAL
       &END VDW_POTENTIAL
     &END XC
     &REAL_TIME_PROPAGATION
       INITIAL_WFN  SCF_WFN
     &END REAL_TIME_PROPAGATION
     &PRINT
       &MULLIKEN  SILENT
         FILENAME =BNS.mulliken
       &END MULLIKEN
     &END PRINT
   &END DFT
   &SUBSYS
     &CELL
       A     2.6082000000000019E+01    0.0000000000000000E+00    0.0000000000000000E+00
       B     0.0000000000000000E+00    2.5097000000000001E+01    0.0000000000000000E+00
       C     0.0000000000000000E+00    0.0000000000000000E+00    5.0000000000000028E+01
       MULTIPLE_UNIT_CELL  1 1 1
     &END CELL
     &COORD
B    1.9039550004311123E-01    4.3071409169685984E+00   -3.5281466998795004E+01
B    2.3992509457429705E+00    5.5476759547694039E+00   -3.5401748133119767E+01
B    2.0310745705131508E-01    6.8455896217961936E+00   -3.5325930693431701E+01
B    2.3758595609191984E+00    8.0619764813362451E+00   -3.5479133044805288E+01
B    2.5529823376417160E-01    9.3592022691959524E+00   -3.5426434988759240E+01
B    2.3459810537942540E+00    1.0579163635642500E+01   -3.5409680296428789E+01
B    1.6070064469548789E-01    1.1889398492048340E+01   -3.5325214414567284E+01
B    2.3476546390513682E+00    1.3122933251444360E+01   -3.5246216904264166E+01
B    1.6777173025967876E-01    1.4405200200878882E+01   -3.5322821549914195E+01
B    2.3482965205465050E+00    1.5619824285485711E+01   -3.5187254361487469E+01
B    4.5296374137940569E+00    4.3360488083450992E+00   -3.5291834271813734E+01
B    6.7452568234374697E+00    5.5685788712915487E+00   -3.5159122049522310E+01
B    4.5295468726637393E+00    6.8388950670830528E+00   -3.5377024160192285E+01
B    6.7423234889235930E+00    8.0498405239023842E+00   -3.5414172852173238E+01
B    4.5477381272827060E+00    9.3865020040796256E+00   -3.5497753881827251E+01
B    6.7489435832650653E+00    1.0595480593233145E+01   -3.5357849801204964E+01
B    4.5726129404037641E+00    1.1894427147287937E+01   -3.5191240040725226E+01
B    6.8028276120738767E+00    1.3115949462843135E+01   -3.5073476581795703E+01
B    4.5422569539608197E+00    1.4360076921142408E+01   -3.5011229661138934E+01
B    6.7167789952117092E+00    1.5609049319869893E+01   -3.4885262962420647E+01
B    8.9128840719197147E+00    4.3168518286338333E+00   -3.4973531988088411E+01
B    1.1062796402020473E+01    5.5314572671211630E+00   -3.4975587181997582E+01
B    8.8956496599869546E+00    6.8289454611813944E+00   -3.5251571566059162E+01
B    1.1067337879485882E+01    8.1188367501447800E+00   -3.5078766574145249E+01
B    8.9626965001700487E+00    9.2988597546504241E+00   -3.5377553393099184E+01
B    1.1090351571017685E+01    1.0582929651589494E+01   -3.5180714324199663E+01
B    8.8593311888012991E+00    1.1759672846630753E+01   -3.5258493992303002E+01
B    1.1068059974284694E+01    1.3087924819004371E+01   -3.5063529667853281E+01
B    8.9368910829866515E+00    1.4302334506843950E+01   -3.4876016297417728E+01
B    1.1084440806072266E+01    1.5602866687152906E+01   -3.4851497250086950E+01
N    1.6817990082456598E+00    4.2882871629124999E+00   -3.5328727909342149E+01
N    3.8914052840657445E+00    5.5695816900005362E+00   -3.5387115188865593E+01
N    1.6674316686034762E+00    6.8300065610714205E+00   -3.5379504574932469E+01
N    3.8084092600677710E+00    8.0957163828355210E+00   -3.5477789439170529E+01
N    1.6852754367042635E+00    9.3411617549435224E+00   -3.5415831836744047E+01
N    3.8081443160673176E+00    1.0608275286454226E+01   -3.5387915584684428E+01
N    1.6439483045467360E+00    1.1873651300655101E+01   -3.5421082911380878E+01
N    3.7782537811445733E+00    1.3099573865403668E+01   -3.5124843679093857E+01
N    1.5822540017124449E+00    1.4387096156395799E+01   -3.5270998248056713E+01
N    3.8132569181447296E+00    1.5600358803082429E+01   -3.5021002125921619E+01
N    5.9597471528601051E+00    4.3208252171213566E+00   -3.5149080485047094E+01
N    8.2004927613541696E+00    5.5764188532123553E+00   -3.5174331566627359E+01
N    5.9851241330628895E+00    6.8139793454606030E+00   -3.5342785425717302E+01
N    8.2008199428948547E+00    8.0787825482555302E+00   -3.5375201840558034E+01
N    5.9906507559825766E+00    9.3408868400542211E+00   -3.5410750335841001E+01
N    8.1973943152927244E+00    1.0557474424170184E+01   -3.5366241159665847E+01
N    6.0449181055756904E+00    1.1862982160285199E+01   -3.5224389951500441E+01
N    8.2018272507214007E+00    1.3076395402558763E+01   -3.5084506972155602E+01
N    5.9860426574646830E+00    1.4297015192430827E+01   -3.4988209454763499E+01
N    8.1795428727362864E+00    1.5572286299760407E+01   -3.4786000063397076E+01
N    1.0378209729368784E+01    4.2631759763270365E+00   -3.4894609194336041E+01
N    1.2512440205632432E+01    5.5789866432350221E+00   -3.4885555961829112E+01
N    1.0278977308981021E+01    6.8351174252081144E+00   -3.5081663503588366E+01
N    1.2473777105748544E+01    8.0993654324390985E+00   -3.4929572899946180E+01
N    1.0371579448341558E+01    9.3316103812721938E+00   -3.5208353499373537E+01
N    1.2533638488852763E+01    1.0609936746936194E+01   -3.5241616479035869E+01
N    1.0362692901130224E+01    1.1855836855117392E+01   -3.5244704597071852E+01
N    1.2510164083040555E+01    1.3113896266418999E+01   -3.5171251645670147E+01
N    1.0381951353888748E+01    1.4348752036422384E+01   -3.4868340715096899E+01
N    1.2492050181181014E+01    1.5655683290096736E+01   -3.4970000899968248E+01
B    1.8224891424032105E-01    1.6894201480593331E+01   -3.5226049261068646E+01
B    2.3652614564803414E+00    1.8132189991818546E+01   -3.4999877895864067E+01
B    2.0887517084560939E-01    1.9381790777297670E+01   -3.5135765277479557E+01
B    2.3879515329792453E+00    2.0662489889788691E+01   -3.5005321389124802E+01
B    1.6269638037937215E-01    2.1869720070731212E+01   -3.5094428668956290E+01
B    2.3849998497808036E+00    2.3134988513579241E+01   -3.5252341814005128E+01
B    1.7788740692654220E-01    2.4334016145198415E+01   -3.5273366327098643E+01
B    2.3171158919718873E+00    2.5675618484827211E+01   -3.5322749053552798E+01
B    2.1415956945771542E-01    2.6914076640881788E+01   -3.5357503822821478E+01
B    2.4189169222252671E+00    2.8177572354772114E+01   -3.5311481057574262E+01
B    4.5214040976205352E+00    1.6886290653287205E+01   -3.4942492181093336E+01
B    6.6983520053271333E+00    1.8095658519669033E+01   -3.4827224088143900E+01
B    4.5600133084463819E+00    1.9323512594010559E+01   -3.5006775941235865E+01
B    6.6706696892279860E+00    2.0656939473378287E+01   -3.4976240034887681E+01
B    4.5493010844733570E+00    2.1903416690645226E+01   -3.5094141921698430E+01
B    6.6804418603790445E+00    2.3153672178274025E+01   -3.5003183839467148E+01
B    4.5342334625600538E+00    2.4410773753848552E+01   -3.5170709448849223E+01
B    6.6552790392992005E+00    2.5680724864899016E+01   -3.4872354688074267E+01
B    4.5344477346025984E+00    2.6933223890119887E+01   -3.5046873640003213E+01
B    6.7227264196679108E+00    2.8243448197758440E+01   -3.4909484413478509E+01
B    8.9242890805623531E+00    1.6832363511066848E+01   -3.4696743685547077E+01
B    1.1018768577911446E+01    1.8126048663514570E+01   -3.4903588916185910E+01
B    8.8716787264609778E+00    1.9404345231403152E+01   -3.4744138838566784E+01
B    1.0999781097887189E+01    2.0678349471991318E+01   -3.4977789481529271E+01
B    8.8769990115106285E+00    2.1921877809308498E+01   -3.4952138840109036E+01
B    1.1022331075980171E+01    2.3183242601985640E+01   -3.4806808399263069E+01
B    8.8053627204514999E+00    2.4464367201219932E+01   -3.4869468927561172E+01
B    1.1008756648454188E+01    2.5580318814915326E+01   -3.4588950464023107E+01
B    8.9038726841169673E+00    2.6918594903158482E+01   -3.4837377320571107E+01
B    1.1144795515422848E+01    2.8129015375550747E+01   -3.4843757108931776E+01
N    1.6629980487405409E+00    1.6866452257488351E+01   -3.5218389827634525E+01
N    3.7863917468759474E+00    1.8105486828600924E+01   -3.4928342323176061E+01
N    1.6581117615576060E+00    1.9401133099682280E+01   -3.5038186244404976E+01
N    3.8238758422153709E+00    2.0620706874593889E+01   -3.4989963573654485E+01
N    1.5936092390141714E+00    2.1925256664688028E+01   -3.5147513885689072E+01
N    3.8406731986181621E+00    2.3138653129583098E+01   -3.5206906810260193E+01
N    1.6752738253224650E+00    2.4377681117024643E+01   -3.5277005293066090E+01
N    3.7825920593553040E+00    2.5667733832366949E+01   -3.5235268831307856E+01
N    1.5992499045684367E+00    2.6907090990150063E+01   -3.5239290934309984E+01
N    3.8143669608789210E+00    2.8172003154763491E+01   -3.5219031144600280E+01
N    5.9768098405010948E+00    1.6854682997039347E+01   -3.4897968719235841E+01
N    8.1428483340759712E+00    1.8084843671047309E+01   -3.4612986999058272E+01
N    5.9773837854043466E+00    1.9391718231176384E+01   -3.4869745574160795E+01
N    8.1533850580743383E+00    2.0656960320172523E+01   -3.4928177242839887E+01
N    6.0410715367003140E+00    2.1882347302434869E+01   -3.5083344721300740E+01
N    8.1597195404619463E+00    2.3154649860944950E+01   -3.4940779439778112E+01
N    5.9839019696381861E+00    2.4433161709380574E+01   -3.4988264240907540E+01
N    8.1155180532923872E+00    2.5698361329715976E+01   -3.4935521330828813E+01
N    5.9720228596089724E+00    2.6922697579449117E+01   -3.4880393157475496E+01
N    8.1499402046263647E+00    2.8183116745494392E+01   -3.4906560390878859E+01
N    1.0373024432675487E+01    1.6858931078973388E+01   -3.4749283244129479E+01
N    1.2437093288914790E+01    1.8155879563537020E+01   -3.5066772038762579E+01
N    1.0291153686739246E+01    1.9401995240971011E+01   -3.4873267047438155E+01
N    1.2447625710724278E+01    2.0623408480573190E+01   -3.4860601736481044E+01
N    1.0330646073485285E+01    2.1946176275765463E+01   -3.5012664032606786E+01
N    1.2443680079607466E+01    2.3136768970250436E+01   -3.4780808721654573E+01
N    1.0236900568911274E+01    2.4399532107940232E+01   -3.4728160762937620E+01
N    1.2478863736169460E+01    2.5603250914296467E+01   -3.4483632561178368E+01
N    1.0352207242552016E+01    2.6942540726417175E+01   -3.4775302937770832E+01
N    1.2517041153721870E+01    2.8100326914028095E+01   -3.4886946379865407E+01
B    1.3247051727143823E+01    4.3030785533812832E+00   -3.4790120060741543E+01
B    1.5389610071073571E+01    5.5604035201752238E+00   -3.4818560482139695E+01
B    1.3185540500701935E+01    6.8555530441180093E+00   -3.4854570297188594E+01
B    1.5427485710494214E+01    8.1143861844132683E+00   -3.4914075065132891E+01
B    1.3225708838433460E+01    9.3403024269202213E+00   -3.5063665475324377E+01
B    1.5423120883831889E+01    1.0585644222793015E+01   -3.5066576560054045E+01
B    1.3282462717166171E+01    1.1850744204586878E+01   -3.5301297853713336E+01
B    1.5430427468189089E+01    1.3112656088313926E+01   -3.5170040400696479E+01
B    1.3209309054212113E+01    1.4377038643997269E+01   -3.5149291590615597E+01
B    1.5371661639704135E+01    1.5599987017502295E+01   -3.5077013031952688E+01
B    1.7560387626842598E+01    4.3284685442508204E+00   -3.4866448601303922E+01
B    1.9735846830390496E+01    5.5950537936149223E+00   -3.5063446744011920E+01
B    1.7570000246772512E+01    6.7782886142863683E+00   -3.5039133028900935E+01
B    1.9798685207724546E+01    8.1382921756419471E+00   -3.5140871411503667E+01
B    1.7594337156596350E+01    9.3557845875689090E+00   -3.4983140134091592E+01
B    1.9723133807282846E+01    1.0621765635315516E+01   -3.5265699778446461E+01
B    1.7564758294414347E+01    1.1843263201588867E+01   -3.4980712909944970E+01
B    1.9744687342893791E+01    1.3148416344866281E+01   -3.5187981800367780E+01
B    1.7520393666332286E+01    1.4350926826984066E+01   -3.5102204273814856E+01
B    1.9797867763447599E+01    1.5615445327288173E+01   -3.5209215438933064E+01
B    2.1982889108258149E+01    4.3866644754824975E+00   -3.5257732540983049E+01
B    2.4066735120908419E+01    5.5914161748230988E+00   -3.5217858803797334E+01
B    2.1896794790284439E+01    6.8473737164770228E+00   -3.5294135585336356E+01
B    2.4097403502531485E+01    8.0651409053838883E+00   -3.5320002056907661E+01
B    2.1915436291178949E+01    9.3560155347840936E+00   -3.5366072148611181E+01
B    2.4098676312969335E+01    1.0585806224099757E+01   -3.5355393520902645E+01
B    2.1907940738661861E+01    1.1845506765000739E+01   -3.5251638032435274E+01
B    2.4107744577305336E+01    1.3089936148675010E+01   -3.5272448030941021E+01
B    2.1931014495388848E+01    1.4343567996370689E+01   -3.5259099612600991E+01
B    2.4100214529567090E+01    1.5609220151444600E+01   -3.5302004957818127E+01
N    1.4694722264886606E+01    4.3053946133238696E+00   -3.4699394939664998E+01
N    1.6816199605561348E+01    5.5449206352586744E+00   -3.4926356260783749E+01
N    1.4700549836773611E+01    6.8202402994775300E+00   -3.4763532131701140E+01
N    1.6864437989863191E+01    8.0442026392152890E+00   -3.4952599708905481E+01
N    1.4658096818606319E+01    9.3856009491772028E+00   -3.5039592115814912E+01
N    1.6871301984713178E+01    1.0558780635699286E+01   -3.5018742207635519E+01
N    1.4741493930244411E+01    1.1815559369271242E+01   -3.5277585564946456E+01
N    1.6910828427369694E+01    1.3104771294759992E+01   -3.5098222453197806E+01
N    1.4679845570885478E+01    1.4365537784838226E+01   -3.5213913140403470E+01
N    1.6803321838686976E+01    1.5592355677489575E+01   -3.5120850236361612E+01
N    1.8985197205217723E+01    4.3430767343501842E+00   -3.5075348043153696E+01
N    2.1186427169561281E+01    5.6509611537966631E+00   -3.5203509073437246E+01
N    1.9020191954238523E+01    6.8658356841059884E+00   -3.5028387250823421E+01
N    2.1156707378590930E+01    8.1114080450930732E+00   -3.5379593005697927E+01
N    1.9047718742432512E+01    9.3745226272424880E+00   -3.5101397845828458E+01
N    2.1195773631210166E+01    1.0614538695115000E+01   -3.5410408851999435E+01
N    1.8978059181870432E+01    1.1831038363953212E+01   -3.5120432373339128E+01
N    2.1175277614516204E+01    1.3102690299224747E+01   -3.5185145573241051E+01
N    1.8978445447418807E+01    1.4430506898500040E+01   -3.5204435349220923E+01
N    2.1207096323376842E+01    1.5566057526725171E+01   -3.5083131929315613E+01
N    2.3391920016639400E+01    4.3504199680188593E+00   -3.5315617624578877E+01
N    2.5551796058681727E+01    5.5770854058778303E+00   -3.5278200808081841E+01
N    2.3339770773921956E+01    6.8455094758483916E+00   -3.5250735679955035E+01
N    2.5546552092964880E+01    8.1268361428831568E+00   -3.5413753293019241E+01
N    2.3364838227858005E+01    9.3424677784578165E+00   -3.5408763123904436E+01
N    2.5537859988580578E+01    1.0614155935905156E+01   -3.5425909991382404E+01
N    2.3336739967051980E+01    1.1868658312966112E+01   -3.5298378988346172E+01
N    2.5552954362133352E+01    1.3109685304603394E+01   -3.5328374592751061E+01
N    2.3410668395028438E+01    1.4353172792689509E+01   -3.5337640264473286E+01
N    2.5540276060890413E+01    1.5645598307703610E+01   -3.5317375611849592E+01
B    1.3197048336258735E+01    1.6939770121845811E+01   -3.5067008745255045E+01
B    1.5373716841492003E+01    1.8130098723209514E+01   -3.5210322130654454E+01
B    1.3164427525530968E+01    1.9356611107284859E+01   -3.5065864806619174E+01
B    1.5374129246969101E+01    2.0673955944337454E+01   -3.5090891039804234E+01
B    1.3162637173125194E+01    2.1852561987587258E+01   -3.4905460836851177E+01
B    1.5347515502425107E+01    2.3155243977486926E+01   -3.4828613750053158E+01
B    1.3226119618943171E+01    2.4390461599684585E+01   -3.4597928040267242E+01
B    1.5403823225199808E+01    2.5587172900809470E+01   -3.4670516080339112E+01
B    1.3260427881199146E+01    2.6819858918633045E+01   -3.4779724919424339E+01
B    1.5397798609332876E+01    2.8180266113827411E+01   -3.4807914498732437E+01
B    1.7564125083991460E+01    1.6840063913616849E+01   -3.5134602822095765E+01
B    1.9757847709086469E+01    1.8094655805964230E+01   -3.5221755008291311E+01
B    1.7491686925731425E+01    1.9393136097963840E+01   -3.5238277750542530E+01
B    1.9711385875614933E+01    2.0566821842013162E+01   -3.5099300192865805E+01
B    1.7533523977366013E+01    2.1882910255822900E+01   -3.5052492156854719E+01
B    1.9726148406047887E+01    2.3092516186951599E+01   -3.5133803106912396E+01
B    1.7555181426240026E+01    2.4418680697765900E+01   -3.5067647981514341E+01
B    1.9723576920373265E+01    2.5657695980193264E+01   -3.5332504404127846E+01
B    1.7604550066502497E+01    2.6870110240411758E+01   -3.4892699901951119E+01
B    1.9737521428313496E+01    2.8208000988611410E+01   -3.5147210571990286E+01
B    2.1946975163645522E+01    1.6843944950156537E+01   -3.5177775051555365E+01
B    2.4119552240259967E+01    1.8117088520736203E+01   -3.5250829448021541E+01
B    2.1913311937163126E+01    1.9398932732942459E+01   -3.5287142413787443E+01
B    2.4050114234450362E+01    2.0661056742418406E+01   -3.5143642107600499E+01
B    2.1881948083719561E+01    2.1868865262312266E+01   -3.5245871524873564E+01
B    2.4095526094026443E+01    2.3125044353115811E+01   -3.5435958182777497E+01
B    2.1953195069834774E+01    2.4335692551481085E+01   -3.5376458092300567E+01
B    2.4187164583706132E+01    2.5597674514214020E+01   -3.5531260044624062E+01
B    2.1911428374669441E+01    2.6887084549004399E+01   -3.5353317455508076E+01
B    2.4048886223683478E+01    2.8169505676935483E+01   -3.5437940126978873E+01
N    1.4629905223626176E+01    1.6879037007529920E+01   -3.5068084010188812E+01
N    1.6814441864712894E+01    1.8104364856860283E+01   -3.5192205552843241E+01
N    1.4604491096061505E+01    1.9386327260492877E+01   -3.5242384944716250E+01
N    1.6814632526723685E+01    2.0630796942534154E+01   -3.5121466635530808E+01
N    1.4594114535929211E+01    2.1866827288323808E+01   -3.4983982371041471E+01
N    1.6810622011515431E+01    2.3125700778894902E+01   -3.4993478076826861E+01
N    1.4662781423481627E+01    2.4349178314860875E+01   -3.4688827080057692E+01
N    1.6830385361244218E+01    2.5621087900596681E+01   -3.4873670242348211E+01
N    1.4690033437747548E+01    2.6854954624702668E+01   -3.4795709347647254E+01
N    1.6935834363695978E+01    2.8154938109341231E+01   -3.4721480681517875E+01
N    1.9062464387343603E+01    1.6865424000756718E+01   -3.5367066041356274E+01
N    2.1168936362674749E+01    1.8090648067439155E+01   -3.5290565310739602E+01
N    1.8958336334730166E+01    1.9349865669525624E+01   -3.5124156912640132E+01
N    2.1187752817092157E+01    2.0607839364480814E+01   -3.5150068672074312E+01
N    1.9032584536955088E+01    2.1860254104968277E+01   -3.5016828632617695E+01
N    2.1190369739267883E+01    2.3110486766023623E+01   -3.5242771358986680E+01
N    1.9030699579662397E+01    2.4389427716486264E+01   -3.5129744124426068E+01
N    2.1170185837910850E+01    2.5616728499561049E+01   -3.5358964947571124E+01
N    1.9009520758952917E+01    2.6911951928614194E+01   -3.5280509851099950E+01
N    2.1223948467828976E+01    2.8212871373252835E+01   -3.5262534950264737E+01
N    2.3400478170289897E+01    1.6867521573190590E+01   -3.5270132621611154E+01
N    2.5510919930187963E+01    1.8144407436444521E+01   -3.5264386906838524E+01
N    2.3371728980552771E+01    1.9392881256168288E+01   -3.5260451054443209E+01
N    2.5541434027675628E+01    2.0651527991588150E+01   -3.5154370873442915E+01
N    2.3309422753006618E+01    2.1924964346135283E+01   -3.5331711855915820E+01
N    2.5541555582049135E+01    2.3116025891589885E+01   -3.5184293622972376E+01
N    2.3419281361212882E+01    2.4391937126934209E+01   -3.5570963206211843E+01
N    2.5590833950923091E+01    2.5580082352104299E+01   -3.5471101931784432E+01
N    2.3346300219391082E+01    2.6873149815660444E+01   -3.5430335807536665E+01
N    2.5532204978150109E+01    2.8159781183528402E+01   -3.5349005133218753E+01
O   -3.0115771081692660E+01    1.2457939435490819E+02   -2.0603380243224663E+01
H   -3.0639083209801232E+01    1.2393559659873296E+02   -2.1147367206569669E+01
H   -3.0755565620852963E+01    1.2506700122903712E+02   -2.0037068868523100E+01
O    2.6074543151813490E+01    9.3979504466311170E+01   -3.0108016991700215E+01
H    2.5313063621257562E+01    9.3417997941474098E+01   -2.9870901363375847E+01
H    2.6483344671156146E+01    9.4302532697536165E+01   -2.9277176872802318E+01
O    1.0591669424108892E+02    5.5714670007932455E+01   -3.0727612313174834E+01
H    1.0522600605914332E+02    5.6311044589861794E+01   -3.1278310559475862E+01
H    1.0660396700504461E+02    5.6317998855304452E+01   -3.0388922528328315E+01
O   -2.2237193565797697E+00    1.2691630892858149E+02   -2.4551318231573170E+01
H   -3.1432237242802215E+00    1.2654073977188034E+02   -2.4186186755345545E+01
H   -1.5597055730654494E+00    1.2644088695364589E+02   -2.4076330174439683E+01
O   -1.5166466831990698E+01    4.3593972268585432E+01   -2.8300421925749621E+01
H   -1.5077559419050122E+01    4.3623417745931150E+01   -2.7316753563306857E+01
H   -1.4896436806607404E+01    4.4418060632657173E+01   -2.8731696054204463E+01
O   -1.1579849128922273E+01    5.7762169073318830E+01   -2.8728781117296823E+01
H   -1.1499735859782604E+01    5.6829508551653930E+01   -2.9037814768115908E+01
H   -1.1993146037754029E+01    5.8242614557243883E+01   -2.9480611213574349E+01
O    1.1048364114124674E+02    5.2409933393430464E+01   -2.4470009086456237E+01
H    1.1146234112818497E+02    5.2101032518667488E+01   -2.4351106649525939E+01
H    1.0987014412610343E+02    5.1706433432132407E+01   -2.4161449007641917E+01
O    1.0137320728062452E+01    3.3421075765381680E+01   -3.1366449051794522E+01
H    1.0184288716499559E+01    3.2465917084530979E+01   -3.1384718111135982E+01
H    9.1825904901509805E+00    3.3580400504412061E+01   -3.1643532735308902E+01
O    2.6172996610934081E+01    3.6642894700053361E+01   -3.1731451763620182E+01
H    2.7143972553071102E+01    3.6520639865071921E+01   -3.1629073687120034E+01
H    2.6173598070122857E+01    3.7600630568560184E+01   -3.1756035366486742E+01
O   -7.1812795471843216E+01    1.1632158900931326E+02   -1.8929176029410272E+01
H   -7.1129567419546632E+01    1.1578687183157588E+02   -1.8455779759567047E+01
H   -7.1214582133466791E+01    1.1678254205118239E+02   -1.9620522166222290E+01
O   -2.6859290522635153E+01    1.3774280341332806E+02   -2.1919981938164586E+01
H   -2.6074342065170544E+01    1.3811214199616802E+02   -2.2425771448885371E+01
H   -2.7599726177463637E+01    1.3805359948937473E+02   -2.2440956407854969E+01
O    2.2004399462578888E+01    1.3523549745701126E+02   -2.1313241375896471E+01
H    2.1380460496672352E+01    1.3598835169552689E+02   -2.1267596507976457E+01
H    2.2505139755228239E+01    1.3539404389943186E+02   -2.0427243098998829E+01
O    4.4578873026102364E+01    1.2420115084799721E+02   -2.8471604518437957E+01
H    4.5217358218593354E+01    1.2395209176104788E+02   -2.9099516716022809E+01
H    4.3753310640391305E+01    1.2456756124675459E+02   -2.8946184703708493E+01
O    5.5423128918646363E+01    5.9230790579658802E+01   -2.6050918774535582E+01
H    5.5657926692173277E+01    6.0106612185184439E+01   -2.6391367896242819E+01
H    5.5122721887762658E+01    5.9404950909060354E+01   -2.5110100619696567E+01
O   -2.8431193760264928E+00    6.0981782103112629E+01   -2.9031702449606492E+01
H   -2.7807072178264680E+00    6.0254497134760875E+01   -2.8296262052904055E+01
H   -3.8145116943098221E+00    6.1315397197886035E+01   -2.9075322515413596E+01
O    1.1401219523581819E+01    1.3349083222228717E+02   -2.4203016482579713E+01
H    1.1877751124564908E+01    1.3380815032102075E+02   -2.5017694955333084E+01
H    1.1357471304570243E+01    1.3249913755420738E+02   -2.4417354589217663E+01
O   -7.7039637596167921E+01    1.2560194142223112E+02   -2.9099489363739107E+01
H   -7.6412579435564481E+01    1.2564577342306320E+02   -2.9869374629582790E+01
H   -7.6442739719532810E+01    1.2578327132501560E+02   -2.8308239843487677E+01
O   -4.8394738806219088E+01    1.0299148013875437E+02   -2.9638982392570174E+01
H   -4.8086187092236216E+01    1.0376106178493437E+02   -2.9111133524828944E+01
H   -4.9400284443544138E+01    1.0314420357021423E+02   -2.9710372854614665E+01
O    1.5698714765766423E+01    8.0810938885314485E+01   -2.6916471613155800E+01