 # Version information for this restart file 
 # current date 2020-01-25 15:13:37.386
 # current working dir /scratch/snx3000/gtocci/gtocci/MEMBRANES/AIMD_US_IONS_BN/aimd_us_iodide/us_6
 # Program compiled at                              Fri Nov 22 15:19:42 CET 2019
 # Program compiled on                                                  daint102
 # Program compiled for                                   CRAY_XC50-gfortran_gpu
 # Source code revision number                                       git:a698b45
 &GLOBAL
   PRINT_LEVEL  LOW
   PROJECT_NAME BNS
   RUN_TYPE  MD
   WALLTIME 86400
 &END GLOBAL
 &MOTION
   &MD
     ENSEMBLE  NVT
     STEPS  2000
     TIMESTEP     9.9999999999999989E-01
     STEP_START_VAL  43246
     TIME_START_VAL     4.3245999999987216E+04
     ECONS_START_VAL    -8.4828456344399601E+03
     TEMPERATURE     3.0000000000000000E+02
     TEMP_KIND  T
     &BAROSTAT
       PRESSURE     1.0000000000000000E+00
       TIMECON     9.9999999999999986E+01
       VIRIAL  Z
     &END BAROSTAT
     &THERMOSTAT
       TYPE  NOSE
       REGION  GLOBAL
       &NOSE
         LENGTH  4
         TIMECON     9.9999999999999986E+01
         MTS  2
         &COORD
               3.1888116353918938E-01    6.7399111791203641E+00    3.3835495497185775E+01   -1.8511221945209154E+01
         &END COORD
         &VELOCITY
              -3.3307742014026505E-06   -1.8923399396251545E-04    1.8989311038858275E-04   -5.0594684438694108E-04
         &END VELOCITY
         &MASS
               7.0145132684705392E+07    1.6237299232570693E+04    1.6237299232570693E+04    1.6237299232570693E+04
         &END MASS
         &FORCE
               1.9003547800873620E-09   -1.0583688557353784E-08   -2.2700509379099732E-08   -2.2450620477054596E-08
         &END FORCE
       &END NOSE
     &END THERMOSTAT
     &AVERAGES  T
       &RESTART_AVERAGES
         ITIMES_START  1
         AVECPU     2.3634227517216406E+01
         AVEHUGONIOT     0.0000000000000000E+00
         AVETEMP_BARO     0.0000000000000000E+00
         AVEPOT    -8.4857961612162617E+03
         AVEKIN     2.0533674494794929E+00
         AVETEMP     3.0018582563646061E+02
         AVEKIN_QM     0.0000000000000000E+00
         AVETEMP_QM     0.0000000000000000E+00
         AVEVOL     2.2086622704881264E+05
         AVECELL_A     4.9287836997924927E+01
         AVECELL_B     4.7426456757032106E+01
         AVECELL_C     9.4486306644279694E+01
         AVEALPHA     9.0000000000000000E+01
         AVEBETA     9.0000000000000000E+01
         AVEGAMMA     9.0000000000000000E+01
         AVE_ECONS     4.5541511119630975E+01
         AVE_PRESS     0.0000000000000000E+00
         AVE_PXX     0.0000000000000000E+00
       &END RESTART_AVERAGES
     &END AVERAGES
     &PRINT
       &TEMP_KIND  SILENT
       &END TEMP_KIND
     &END PRINT
   &END MD
   &FREE_ENERGY
     &METADYN
       MIN_DISP    -1.0000000000000000E+00
       OLD_HILL_NUMBER  0
       OLD_HILL_STEP  0
       DO_HILLS  F
       STEP_START_VAL  43246
       NHILLS_START_VAL  0
       &METAVAR
         SCALE     1.0000000000000000E+00
         COLVAR  1
       &END METAVAR
       &PRINT
         &COLVAR  SILENT
           COMMON_ITERATION_LEVELS  3
           &EACH
             MD  1
           &END EACH
         &END COLVAR
       &END PRINT
     &END METADYN
   &END FREE_ENERGY
   &CONSTRAINT
     &COLLECTIVE
       COLVAR  1
       INTERMOLECULAR  T
       &RESTRAINT
         K     4.4625385281452931E-04
       &END RESTRAINT
     &END COLLECTIVE
     &COLVAR_RESTART
           5.8915121426091499E+00
     &END COLVAR_RESTART
   &END CONSTRAINT
   &PRINT
     &TRAJECTORY  SILENT
       &EACH
         MD  1
       &END EACH
     &END TRAJECTORY
     &VELOCITIES  SILENT
       &EACH
         MD  1
       &END EACH
     &END VELOCITIES
     &FORCES  SILENT
       UNIT eV*angstrom^-1
       &EACH
         MD  1
       &END EACH
     &END FORCES
     &RESTART  SILENT
       &EACH
         MD  1
       &END EACH
     &END RESTART
     &RESTART_HISTORY  SILENT
       &EACH
         MD  100
       &END EACH
     &END RESTART_HISTORY
   &END PRINT
 &END MOTION
 &FORCE_EVAL
   METHOD  QS
   &DFT
     BASIS_SET_FILE_NAME /users/gtocci/scratch_daint_3000/data_cp2k//BASIS_MOLOPT
     POTENTIAL_FILE_NAME /users/gtocci/scratch_daint_3000/data_cp2k//GTH_POTENTIALS
     WFN_RESTART_FILE_NAME ./BNS-RESTART.wfn
     CHARGE  -1
     &SCF
       MAX_SCF  10
       EPS_SCF     9.9999999999999995E-07
       SCF_GUESS  RESTART
       &OT  T
         MINIMIZER  DIIS
         PRECONDITIONER  FULL_KINETIC
       &END OT
       &OUTER_SCF  T
         EPS_SCF     9.9999999999999995E-07
         MAX_SCF  30
       &END OUTER_SCF
       &PRINT
         &RESTART  SILENT
           ADD_LAST  NUMERIC
           &EACH
             QS_SCF  50
           &END EACH
         &END RESTART
       &END PRINT
     &END SCF
     &QS
       MAP_CONSISTENT  T
       EXTRAPOLATION  ASPC
       EXTRAPOLATION_ORDER  4
     &END QS
     &MGRID
       NGRIDS  5
       CUTOFF     4.6000000000000000E+02
     &END MGRID
     &XC
       DENSITY_CUTOFF     1.0000000000000000E-10
       GRADIENT_CUTOFF     1.0000000000000000E-10
       TAU_CUTOFF     1.0000000000000000E-10
       &XC_GRID
         XC_DERIV  SPLINE2_SMOOTH
       &END XC_GRID
       &XC_FUNCTIONAL  NO_SHORTCUT
         &LIBXC  T
           FUNCTIONAL XC_GGA_X_OPTB88_VDW
         &END LIBXC
         &VWN  T
         &END VWN
       &END XC_FUNCTIONAL
       &VDW_POTENTIAL
         POTENTIAL_TYPE  NON_LOCAL
         &NON_LOCAL
           TYPE  DRSLL
           VERBOSE_OUTPUT  T
           KERNEL_FILE_NAME /users/gtocci/scratch_daint_3000/data_cp2k//vdW_kernel_table.dat
           CUTOFF     3.6000000000000000E+02
         &END NON_LOCAL
       &END VDW_POTENTIAL
     &END XC
     &REAL_TIME_PROPAGATION
       INITIAL_WFN  SCF_WFN
     &END REAL_TIME_PROPAGATION
     &PRINT
       &MULLIKEN  SILENT
         FILENAME =BNS.mulliken
       &END MULLIKEN
     &END PRINT
   &END DFT
   &SUBSYS
     &CELL
       A     2.6082000000000019E+01    0.0000000000000000E+00    0.0000000000000000E+00
       B     0.0000000000000000E+00    2.5097000000000001E+01    0.0000000000000000E+00
       C     0.0000000000000000E+00    0.0000000000000000E+00    5.0000000000000028E+01
       MULTIPLE_UNIT_CELL  1 1 1
     &END CELL
     &COORD
B   -1.8771323374199387E+00    1.3030607461045536E+01   -3.0624900339999844E+01
B    3.4252731613982546E-01    1.4246568342833767E+01   -3.0697334963190631E+01
B   -1.8946191758338802E+00    1.5571123615675633E+01   -3.0576318196681864E+01
B    3.2789807368520291E-01    1.6780826301329267E+01   -3.0562970958289061E+01
B   -1.9014772794109545E+00    1.8051734160288696E+01   -3.0384656508007371E+01
B    3.3688358643579513E-01    1.9334182349028783E+01   -3.0424203039131680E+01
B   -1.8348517006230496E+00    2.0602608523628600E+01   -3.0275848994040427E+01
B    2.8000383360619768E-01    2.1787259621360882E+01   -3.0458795001481651E+01
B   -1.8748331915557714E+00    2.3108812721417546E+01   -3.0313892665130162E+01
B    3.4377713114054959E-01    2.4305551854317180E+01   -3.0380833066124538E+01
B    2.5336513994414105E+00    1.2968873875702341E+01   -3.0912375532185671E+01
B    4.7124203239088445E+00    1.4200328842903028E+01   -3.0804947218450479E+01
B    2.5317278366011147E+00    1.5453544297223349E+01   -3.0740069325766171E+01
B    4.7156572227818074E+00    1.6760525945819257E+01   -3.0651870716815534E+01
B    2.4945116477541869E+00    1.8000297767395551E+01   -3.0560243397975349E+01
B    4.6178106110723567E+00    1.9258918696993859E+01   -3.0490713604010018E+01
B    2.4716419005129651E+00    2.0581138901318507E+01   -3.0523382466977864E+01
B    4.6621338763645648E+00    2.1724742062850108E+01   -3.0475496548967829E+01
B    2.5087612906793888E+00    2.3066200665118149E+01   -3.0426984661682905E+01
B    4.6832367559600288E+00    2.4291808660779783E+01   -3.0397159141551231E+01
B    6.8508202520306316E+00    1.3017939525750307E+01   -3.0656013530297042E+01
B    9.0374564619521909E+00    1.4266829709572242E+01   -3.0617249036293991E+01
B    6.8914495394587734E+00    1.5508266198599911E+01   -3.0638275581644816E+01
B    9.0518596506976596E+00    1.6784690518458365E+01   -3.0604319369072783E+01
B    6.8661965557484139E+00    1.8050481970681950E+01   -3.0506462046289570E+01
B    9.0041400614898457E+00    1.9300515317822104E+01   -3.0491534319830777E+01
B    6.8141799442102657E+00    2.0505966890392493E+01   -3.0457471885254442E+01
B    8.9826891560745157E+00    2.1836388378235746E+01   -3.0398625044297717E+01
B    6.8538344504521662E+00    2.3008102724335739E+01   -3.0499082459400146E+01
B    9.0424217750462219E+00    2.4296321000979802E+01   -3.0056745745695512E+01
N   -4.9233556223682312E-01    1.3028682524911712E+01   -3.0611288443864165E+01
N    1.7660534844467923E+00    1.4198681102448377E+01   -3.0789949744765021E+01
N   -4.3378961341690936E-01    1.5517474205643374E+01   -3.0627709204241487E+01
N    1.7979159029373930E+00    1.6755341075395325E+01   -3.0570815837833710E+01
N   -4.2902004143827244E-01    1.8029106910829338E+01   -3.0470760738966330E+01
N    1.7836835182492481E+00    1.9285689256165746E+01   -3.0474865358008284E+01
N   -3.9499953924786518E-01    2.0553378763759170E+01   -3.0455950553112185E+01
N    1.7126531139580377E+00    2.1787041358963659E+01   -3.0387267138182580E+01
N   -4.0037251876282465E-01    2.3059290119714024E+01   -3.0363903128554320E+01
N    1.7778625384316169E+00    2.4299484113308118E+01   -3.0526647002894620E+01
N    3.9687798593697479E+00    1.2960740553323166E+01   -3.0846121410453804E+01
N    6.1623010195572352E+00    1.4224672493988521E+01   -3.0675468705154827E+01
N    3.9806910466936385E+00    1.5440381022779675E+01   -3.0742462183293668E+01
N    6.1381453157837118E+00    1.6773671760928458E+01   -3.0610913714512293E+01
N    3.9342798122215954E+00    1.8012115266346985E+01   -3.0608932995249500E+01
N    6.0899419422209187E+00    1.9273270569584330E+01   -3.0444084324419773E+01
N    3.9336205159520325E+00    2.0527636267931822E+01   -3.0551367428387817E+01
N    6.1271446993568484E+00    2.1734831301383643E+01   -3.0418901974392941E+01
N    3.9483169465045909E+00    2.3051592538209754E+01   -3.0450158223206852E+01
N    6.1375723572265581E+00    2.4288999411764124E+01   -3.0554064824941019E+01
N    8.3331032791622555E+00    1.2987557982137012E+01   -3.0560550738080877E+01
N    1.0506199649891222E+01    1.4249909025811412E+01   -3.0811149084977334E+01
N    8.3333963840628051E+00    1.5502325401362796E+01   -3.0648970412771366E+01
N    1.0506714239369305E+01    1.6808339597421163E+01   -3.0574803547599053E+01
N    8.2893976445773738E+00    1.8026192446825878E+01   -3.0553406358180407E+01
N    1.0517647362314920E+01    1.9304992725862615E+01   -3.0435677478245861E+01
N    8.2805106827685346E+00    2.0528281981645232E+01   -3.0612462027859884E+01
N    1.0478647293776479E+01    2.1843853440867651E+01   -3.0326616684093707E+01
N    8.2489608446875646E+00    2.3035693950390979E+01   -3.0213682795867886E+01
N    1.0452228992869021E+01    2.4299136141715650E+01   -2.9860853866608554E+01
B   -1.8719436942438330E+00    2.5557939622868819E+01   -3.0164281165041569E+01
B    3.2166241677556379E-01    2.6814309373328420E+01   -3.0225451924453889E+01
B   -1.8860496959571071E+00    2.8083969886782153E+01   -3.0124579445790005E+01
B    3.3868369644134644E-01    2.9337959070394867E+01   -3.0059007182838045E+01
B   -1.8416327801810628E+00    3.0522705288031407E+01   -3.0206692501702289E+01
B    3.3608055248169494E-01    3.1843810189267298E+01   -3.0230426626871541E+01
B   -1.8691535794161434E+00    3.3081593600677913E+01   -3.0405731710710349E+01
B    3.0741792317915723E-01    3.4309049087361799E+01   -3.0650199456114123E+01
B   -1.9246735344971904E+00    3.5590933595543788E+01   -3.0637400643823351E+01
B    2.7423458283218211E-01    3.6837775475385882E+01   -3.0674973041985620E+01
B    2.4905938235679419E+00    2.5540501859447794E+01   -3.0312993276549189E+01
B    4.6285158283930343E+00    2.6746641191174092E+01   -3.0282568458976094E+01
B    2.4767571020641430E+00    2.8083614054725583E+01   -3.0075376648281104E+01
B    4.5824164080277141E+00    2.9298087753878420E+01   -3.0274556120619653E+01
B    2.4456666577293005E+00    3.0554546822780107E+01   -3.0135247788519656E+01
B    4.6314645051280108E+00    3.1741828177627649E+01   -3.0329278722958840E+01
B    2.4813673172323032E+00    3.3084447889743437E+01   -3.0390538134541657E+01
B    4.6633421827054464E+00    3.4321518323918930E+01   -3.0624987197900904E+01
B    2.5045397961847566E+00    3.5589086854646183E+01   -3.0685801784749476E+01
B    4.6706852664836029E+00    3.6788326871815016E+01   -3.0775050653358907E+01
B    6.8450032290530896E+00    2.5514097695755627E+01   -3.0369214832851625E+01
B    8.9986540107196085E+00    2.6765409088720752E+01   -3.0056033354867061E+01
B    6.8054019476953300E+00    2.8046140143871863E+01   -3.0233230325799649E+01
B    8.9289218575098790E+00    2.9295947971297117E+01   -3.0085559349177821E+01
B    6.7998680214640057E+00    3.0586815736459663E+01   -3.0376908200428037E+01
B    9.0294485163119216E+00    3.1827939163490509E+01   -3.0359720864435619E+01
B    6.7822031492103401E+00    3.3052961236419222E+01   -3.0460040919911936E+01
B    9.0631896534723140E+00    3.4305962031872383E+01   -3.0565105767135314E+01
B    6.8450706497885516E+00    3.5548694709492999E+01   -3.0616791761337169E+01
B    9.0374262809834001E+00    3.6808815837942703E+01   -3.0594462085056506E+01
N   -4.3553109780505139E-01    2.5556109008651994E+01   -3.0207038614380238E+01
N    1.7740370272989225E+00    2.6844040011755567E+01   -3.0239956247491868E+01
N   -4.4244111062531688E-01    2.8095368232451900E+01   -3.0173830836793751E+01
N    1.7794721801140201E+00    2.9329495132011154E+01   -2.9941405603435349E+01
N   -3.7586812954995658E-01    3.0572039125619291E+01   -3.0183075009310052E+01
N    1.7708084738406682E+00    3.1853739902002502E+01   -3.0282603900152285E+01
N   -3.8298431354034429E-01    3.3077365436660294E+01   -3.0612460563398166E+01
N    1.7918420716767820E+00    3.4322666778024640E+01   -3.0515447123745972E+01
N   -4.4237312491989900E-01    3.5567994686621546E+01   -3.0704428953332318E+01
N    1.7322348165352632E+00    3.6825272601301322E+01   -3.0833042114594662E+01
N    3.9604550259637636E+00    2.5529520945649438E+01   -3.0225195954472589E+01
N    6.1027674997518266E+00    2.6759317920294514E+01   -3.0372870425003413E+01
N    3.9012727150918090E+00    2.8018346813201418E+01   -3.0225089624680219E+01
N    6.0914197520223308E+00    2.9315000635030739E+01   -3.0220804654530156E+01
N    3.9029422147506310E+00    3.0529679447080259E+01   -3.0221719767916429E+01
N    6.0633484776350581E+00    3.1813437682512784E+01   -3.0383743357855433E+01
N    3.9329293558334819E+00    3.3071148438392107E+01   -3.0447781884113720E+01
N    6.0865525226859996E+00    3.4313526424484870E+01   -3.0574604149894167E+01
N    3.9418773984612363E+00    3.5579187798707103E+01   -3.0754488287799948E+01
N    6.1446215767517067E+00    3.6825263417395469E+01   -3.0749435157960761E+01
N    8.3198379479637001E+00    2.5554846036857242E+01   -3.0214703286896441E+01
N    1.0441056894255480E+01    2.6820487695192298E+01   -2.9796135839941037E+01
N    8.2576555462785937E+00    2.8007943604193891E+01   -3.0015101721471645E+01
N    1.0429787030588450E+01    2.9340425216194156E+01   -2.9968909922173474E+01
N    8.2535811610890875E+00    3.0547587886753085E+01   -3.0316005180896660E+01
N    1.0465304177127706E+01    3.1851505625028022E+01   -3.0323972696550012E+01
N    8.2824167795129000E+00    3.3093019454278867E+01   -3.0481326429170792E+01
N    1.0478438942818375E+01    3.4363274912226451E+01   -3.0489618645593250E+01
N    8.2740525361314887E+00    3.5541346955221265E+01   -3.0662632041341727E+01
N    1.0496103250955583E+01    3.6847898551075382E+01   -3.0543906228098841E+01
B    1.1244513075475394E+01    1.3016592756461536E+01   -3.0653271232395227E+01
B    1.3432572995274736E+01    1.4258065601228042E+01   -3.0782323246889359E+01
B    1.1238408296342188E+01    1.5499746409669726E+01   -3.0597285988980165E+01
B    1.3384198771511409E+01    1.6754925185335768E+01   -3.0632735538221546E+01
B    1.1257493806851164E+01    1.8090819059364701E+01   -3.0559196472109900E+01
B    1.3430563723683260E+01    1.9360813558779729E+01   -3.0334676479046564E+01
B    1.1188706392652524E+01    2.0575749402640362E+01   -3.0322752440986541E+01
B    1.3346671881067550E+01    2.1809435259940884E+01   -3.0001697039741806E+01
B    1.1208567661049482E+01    2.3057446386338853E+01   -3.0009282402202427E+01
B    1.3280980842886263E+01    2.4316206489434549E+01   -2.9780692526966551E+01
B    1.5554984938085635E+01    1.2976252727819395E+01   -3.0810512413854074E+01
B    1.7708938554658939E+01    1.4255968269483668E+01   -3.0645745552753329E+01
B    1.5571808281740703E+01    1.5555649023689448E+01   -3.0670393789746043E+01
B    1.7660238888868573E+01    1.6818346040761980E+01   -3.0664704533088873E+01
B    1.5516210412050485E+01    1.8087310037522890E+01   -3.0526797534166537E+01
B    1.7733197231268758E+01    1.9324680016419215E+01   -3.0458778106715460E+01
B    1.5560778955401002E+01    2.0577237579042720E+01   -3.0228497684227499E+01
B    1.7711273167972234E+01    2.1831804176280215E+01   -3.0175956189111407E+01
B    1.5478046298955025E+01    2.3078539481614662E+01   -2.9857831236526053E+01
B    1.7700171430140777E+01    2.4332733212526133E+01   -2.9794014002478605E+01
B    1.9852679974162271E+01    1.3014589587050137E+01   -3.0682276373748678E+01
B    2.2003278707485730E+01    1.4273326181122917E+01   -3.0607412721928558E+01
B    1.9786191337133165E+01    1.5541180306591201E+01   -3.0621799886940785E+01
B    2.1997223776070943E+01    1.6781703631498672E+01   -3.0554058702631860E+01
B    1.9862791686411384E+01    1.8025192500530700E+01   -3.0598073889547422E+01
B    2.2082835408223580E+01    1.9281276256759323E+01   -3.0343759635870505E+01
B    1.9887108465234572E+01    2.0562187806414837E+01   -3.0250584613131011E+01
B    2.2070471572587923E+01    2.1761733437574051E+01   -3.0168958528485852E+01
B    1.9834874469481118E+01    2.3009439793614632E+01   -2.9890237147374862E+01
B    2.1999349045726298E+01    2.4256773426995235E+01   -3.0013079594761777E+01
N    1.2665362909399619E+01    1.3048331107420895E+01   -3.0811152127366981E+01
N    1.4885247733236328E+01    1.4284653582005252E+01   -3.0820620680660607E+01
N    1.2691908023170406E+01    1.5496661947592017E+01   -3.0679387721132692E+01
N    1.4808676843056668E+01    1.6787952327689140E+01   -3.0576469892020576E+01
N    1.2705505637259213E+01    1.8091768339165743E+01   -3.0603311533997051E+01
N    1.4850858226315827E+01    1.9315466119507683E+01   -3.0419798888861386E+01
N    1.2614316848485245E+01    2.0581109088148271E+01   -3.0192189711357042E+01
N    1.4773559456473173E+01    2.1823213251565068E+01   -3.0030596460574724E+01
N    1.2617180164087536E+01    2.3001278772576864E+01   -2.9736159527886368E+01
N    1.4787319843848039E+01    2.4364699540091976E+01   -2.9838854455113125E+01
N    1.6978763372636433E+01    1.2993605184882110E+01   -3.0780438925891666E+01
N    1.9088947381219075E+01    1.4297027748416646E+01   -3.0642099336494706E+01
N    1.6986480781644399E+01    1.5529437251672984E+01   -3.0713684499158280E+01
N    1.9153481076545834E+01    1.6801477484236447E+01   -3.0777435678474266E+01
N    1.6997689206268934E+01    1.8033861395500093E+01   -3.0568669846468246E+01
N    1.9185152451557389E+01    1.9304979251346570E+01   -3.0476239337133169E+01
N    1.6994496755100293E+01    2.0603497536967208E+01   -3.0374402759804717E+01
N    1.9156477314214602E+01    2.1783050733519712E+01   -3.0240450745511556E+01
N    1.6935714241092924E+01    2.3072091466268116E+01   -2.9906989048253241E+01
N    1.9120433907371744E+01    2.4299111695568175E+01   -2.9672724320335199E+01
N    2.1277845628713365E+01    1.3022330861124695E+01   -3.0635953476567209E+01
N    2.3442127388631395E+01    1.4309129543412960E+01   -3.0667746411255262E+01
N    2.1257007285565752E+01    1.5496901094535476E+01   -3.0561584252230013E+01
N    2.3462192378556768E+01    1.6812420624617733E+01   -3.0458981133796659E+01
N    2.1279931304124762E+01    1.8044767705378852E+01   -3.0483740604612827E+01
N    2.3513073420960939E+01    1.9322455688547937E+01   -3.0285444211967789E+01
N    2.1309182368528948E+01    2.0517411664251551E+01   -3.0292540052115623E+01
N    2.3472355981861774E+01    2.1842318305178829E+01   -3.0231551094915215E+01
N    2.1289429846792036E+01    2.3017109241465821E+01   -3.0091754038396978E+01
N    2.3459565639509854E+01    2.4327236018004886E+01   -3.0224550446732948E+01
B    1.1192971935643914E+01    2.5551976733207344E+01   -2.9774012057195513E+01
B    1.3303861938121107E+01    2.6853070951960351E+01   -2.9799404649113267E+01
B    1.1131830179443394E+01    2.8084373446337576E+01   -2.9825610040362776E+01
B    1.3391075862436201E+01    2.9363118278222363E+01   -3.0051729785290036E+01
B    1.1172062432863529E+01    3.0609649178871187E+01   -3.0133137965755122E+01
B    1.3361094047763720E+01    3.1826806866932049E+01   -3.0350321097967800E+01
B    1.1241002799671620E+01    3.3117194296892642E+01   -3.0446195366339289E+01
B    1.3411356799789257E+01    3.4365861289937236E+01   -3.0725264449746842E+01
B    1.1164502546088867E+01    3.5615078771071254E+01   -3.0652054463034677E+01
B    1.3369879126537247E+01    3.6874459350723377E+01   -3.0739110328148953E+01
B    1.5508807418794362E+01    2.5645644764204029E+01   -2.9838996219331460E+01
B    1.7711633618542407E+01    2.6860430584152851E+01   -2.9940392731773841E+01
B    1.5504308197065901E+01    2.8104345798293203E+01   -3.0049230245269278E+01
B    1.7688949890026297E+01    2.9359611537807442E+01   -3.0218174511101804E+01
B    1.5510015871064242E+01    3.0573432765730992E+01   -3.0236996414853149E+01
B    1.7738225561827711E+01    3.1848379096778721E+01   -3.0409080146183854E+01
B    1.5557401071813212E+01    3.3087303104329798E+01   -3.0659777628974055E+01
B    1.7720097030096596E+01    3.4325646264612928E+01   -3.0532074559610550E+01
B    1.5555750655718438E+01    3.5596977641935950E+01   -3.0617043470796968E+01
B    1.7689431517859646E+01    3.6820780160916527E+01   -3.0655755065922104E+01
B    1.9896219637342710E+01    2.5581235801656558E+01   -2.9582785529758823E+01
B    2.2045017395615439E+01    2.6846005301378881E+01   -2.9886600081759696E+01
B    1.9831912619998224E+01    2.8108167318964959E+01   -2.9851401461887544E+01
B    2.2046936751034927E+01    2.9261777409691060E+01   -3.0071137429661810E+01
B    1.9915908938964130E+01    3.0613429775279581E+01   -3.0149925478654534E+01
B    2.2059222840121574E+01    3.1799463890758098E+01   -3.0329925461298551E+01
B    1.9846154265103099E+01    3.3035061610568249E+01   -3.0373063793215980E+01
B    2.2049696110588847E+01    3.4361078866524245E+01   -3.0372771716459873E+01
B    1.9847850897308973E+01    3.5580208326367313E+01   -3.0664331236025880E+01
B    2.2023582351235387E+01    3.6810264196251140E+01   -3.0600342731487554E+01
N    1.2631203702359056E+01    2.5600846782858689E+01   -2.9737848608490719E+01
N    1.4791043419466956E+01    2.6898936605755306E+01   -2.9808089604059731E+01
N    1.2640599327720937E+01    2.8102141040615400E+01   -2.9871279110357911E+01
N    1.4762705619345565E+01    2.9310653076419271E+01   -3.0057624300206147E+01
N    1.2650030193984060E+01    3.0623495910984452E+01   -3.0189581531577836E+01
N    1.4790230762230498E+01    3.1845553572012186E+01   -3.0397621602098834E+01
N    1.2657924063843092E+01    3.3127262502487085E+01   -3.0578175977022227E+01
N    1.4840001932864499E+01    3.4331467038681097E+01   -3.0852362068505293E+01
N    1.2634355874178699E+01    3.5577016201104684E+01   -3.0665417335092172E+01
N    1.4799754260981127E+01    3.6862593268253811E+01   -3.0770832946168493E+01
N    1.6917673244776758E+01    2.5658913617742652E+01   -2.9845389868450738E+01
N    1.9147468529388831E+01    2.6842682696458702E+01   -2.9702837596246425E+01
N    1.6971874069422096E+01    2.8109930738623465E+01   -3.0216636813359042E+01
N    1.9153117737710691E+01    2.9322236841443402E+01   -3.0100746565491363E+01
N    1.6960410791948568E+01    3.0615608671890961E+01   -3.0340368069289880E+01
N    1.9164291128081633E+01    3.1815567408450800E+01   -3.0170680668089904E+01
N    1.7000098085589951E+01    3.3088844842666845E+01   -3.0611214380914927E+01
N    1.9144026959866775E+01    3.4283453756207983E+01   -3.0554777750595509E+01
N    1.6978041863606858E+01    3.5618447561224890E+01   -3.0601914492355061E+01
N    1.9137299821858470E+01    3.6822217237132982E+01   -3.0786223940658605E+01
N    2.1336429410819150E+01    2.5542596733760039E+01   -2.9718470718243225E+01
N    2.3491839775623866E+01    2.6803211596729067E+01   -3.0129378294885402E+01
N    2.1300145751716087E+01    2.8075026707956773E+01   -2.9953854894094516E+01
N    2.3493726487684963E+01    2.9288853529173412E+01   -3.0188786348891163E+01
N    2.1347649462561709E+01    3.0507040593032929E+01   -3.0208385586270360E+01
N    2.3558814618515711E+01    3.1762061021763440E+01   -3.0358083428170499E+01
N    2.1306551388891940E+01    3.3084278320381259E+01   -3.0278099482480950E+01
N    2.3477841463288762E+01    3.4332021763556078E+01   -3.0508937389549132E+01
N    2.1287182292716935E+01    3.5589506992871307E+01   -3.0557736668478544E+01
N    2.3503247214755991E+01    3.6830816808438847E+01   -3.0720972851578072E+01
O   -3.7208133922922326E-01   -1.7063502791854440E+01   -2.7404364103239892E+01
H   -6.5632872474960580E-02   -1.7103553206588774E+01   -2.6470857273417025E+01
H   -1.3416174666035552E+00   -1.7091676081457432E+01   -2.7249758735501214E+01
O    1.4126270487161358E+01    9.6813241578014360E+00   -2.3484218333816798E+01
H    1.4975371643753224E+01    9.1518564360879004E+00   -2.3407217329491861E+01
H    1.3887443039579036E+01    9.8564875743418838E+00   -2.2540816722809449E+01
O    1.0179210884348261E+02   -1.1724069691923759E+01   -2.3571223309056951E+01
H    1.0135475069967619E+02   -1.2605068013500919E+01   -2.3584856202356058E+01
H    1.0266155420363448E+02   -1.1790048689366770E+01   -2.4031451968396738E+01
O    3.9821603842535676E+00   -2.4153745798826414E+01   -1.9374474258599360E+01
H    2.9753370353329061E+00   -2.4288114967325100E+01   -1.9430240000454965E+01
H    4.0577627175776785E+00   -2.3888580705809638E+01   -1.8393308595280185E+01
O    1.9960034645374944E-01   -6.8085863427942996E+00   -2.0204849246183237E+01
H    1.2865544462777698E-01   -6.0625198175105028E+00   -1.9629609362885571E+01
H    4.6370944570761002E-01   -6.5504601968790368E+00   -2.1139842848344493E+01
O    1.3606072849189347E+01   -4.9504727911805652E+01   -2.6681717446259054E+01
H    1.2864293804731338E+01   -5.0156816324753301E+01   -2.6703627291440490E+01
H    1.3192046909676169E+01   -4.8601346836728155E+01   -2.6586271482699683E+01
O   -3.3551811466844801E+00   -2.8950281759659038E+01   -2.4751828973283551E+01
H   -2.7502153172899990E+00   -2.9362958040490568E+01   -2.4054817879631564E+01
H   -3.7258323002953002E+00   -2.8050117572973786E+01   -2.4388884626552152E+01
O    2.1288090115662552E+01   -2.3345784446657758E+00   -1.4817755917892512E+01
H    2.0374205624774078E+01   -2.5168376751778911E+00   -1.4418084658943679E+01
H    2.1785250073897334E+01   -3.1938191250704135E+00   -1.4775209490534065E+01
O    2.8590240688738636E+01    5.9514349722064219E+00   -2.4185557044550702E+01
H    2.8730688999214689E+01    5.3869343375915824E+00   -2.5017306411276106E+01
H    2.7943826268147923E+01    5.3658070009077372E+00   -2.3710310422479317E+01
O    4.0653788649464140E+01   -1.7209175929160558E+01   -1.4053169944117597E+01
H    4.1638651229391769E+01   -1.7146107645609451E+01   -1.3988657484074912E+01
H    4.0267019212772929E+01   -1.6433485623501696E+01   -1.3500037769543852E+01
O    1.4014079388584015E+01   -2.2688448544572285E+01   -2.0519917950952127E+01
H    1.4024099816520078E+01   -2.2787016928300282E+01   -1.9554403419288676E+01
H    1.4783045346361259E+01   -2.3095605666592167E+01   -2.0959886274799377E+01
O    1.7519332140716202E+01    5.7531674011287635E+01   -2.7206337411424300E+01
H    1.7019217855017096E+01    5.8395811727365704E+01   -2.7295723124048127E+01
H    1.6990836849352068E+01    5.6849648673901633E+01   -2.7608879817695144E+01
O   -3.2692009518437675E+00    3.2872663560736328E+01   -2.7149060581682164E+01
H   -4.2390471409109214E+00    3.3216357868556265E+01   -2.7302249135426504E+01
H   -3.4856304430809391E+00    3.1946964637721965E+01   -2.7161133799512879E+01
O    1.9973128795929828E+01   -1.6246335964528100E+01   -2.7168508210790154E+01
H    1.9443081467994300E+01   -1.7028942494009893E+01   -2.7398114581836992E+01
H    1.9738702628151476E+01   -1.6017599167590514E+01   -2.6265198950171389E+01
O   -4.1727046019929528E+00    8.9144149094366565E+00   -1.8796887298053370E+01
H   -3.3893782963285641E+00    8.3511344544978812E+00   -1.8574643433030865E+01
H   -4.7838709661869530E+00    8.7567910439175929E+00   -1.8010059125178735E+01
O    3.4282034052449866E+01    1.1211885200463994E+01   -2.4717614605380366E+01
H    3.4525869066196861E+01    1.1216087282005356E+01   -2.5631933820040537E+01
H    3.4014506329849056E+01    1.2144166836052570E+01   -2.4526354153015166E+01
O    1.0177904964079145E+01    3.1497576415741669E+01   -2.4753968646873375E+01
H    1.1122303723186269E+01    3.1969997357973394E+01   -2.4795229502122901E+01
H    9.6623905331449791E+00    3.1984691806003713E+01   -2.5386263022169906E+01
O   -6.1423288136956067E+01    5.2880793680215689E+01   -1.9485754291571435E+01
H   -6.0446690854239819E+01    5.2968575763134567E+01   -1.9581738745396493E+01
H   -6.1774865782216104E+01    5.3787127245165266E+01   -1.9580230363285782E+01
O   -1.0128854258479834E-02    4.5599913680822027E+01   -1.7732381823245696E+01