 # Version information for this restart file 
 # current date 2020-04-18 07:34:27.560
 # current working dir /scratch/snx3000/gtocci/gtocci/MEMBRANES/AIMD_US_IONS_GRA/us_aimd_new/us_14
 # Program compiled at                              Fri Nov 22 15:19:42 CET 2019
 # Program compiled on                                                  daint102
 # Program compiled for                                   CRAY_XC50-gfortran_gpu
 # Source code revision number                                       git:a698b45
 &GLOBAL
   PRINT_LEVEL  LOW
   PROJECT_NAME GRAS
   RUN_TYPE  MD
   WALLTIME 86400
 &END GLOBAL
 &MOTION
   &MD
     ENSEMBLE  NVT
     STEPS  2000
     TIMESTEP     9.9999999999999989E-01
     STEP_START_VAL  79836
     TIME_START_VAL     7.9835999999930587E+04
     ECONS_START_VAL    -8.3040899689865691E+03
     TEMPERATURE     3.0000000000000000E+02
     TEMP_KIND  T
     &BAROSTAT
       PRESSURE     1.0000000000000000E+00
       TIMECON     9.9999999999999986E+01
       VIRIAL  Z
     &END BAROSTAT
     &THERMOSTAT
       TYPE  NOSE
       REGION  GLOBAL
       &NOSE
         LENGTH  4
         TIMECON     9.9999999999999986E+01
         MTS  2
         &COORD
               1.0165549762587811E-01    9.9393445924835664E+00    3.5016069114769856E+01   -4.2785472312795697E+01
         &END COORD
         &VELOCITY
               5.6435703676238063E-07    7.3681773170869587E-05   -1.1322132073192564E-04   -1.7058488947788435E-04
         &END VELOCITY
         &MASS
               7.0145132684705392E+07    1.6237299232570693E+04    1.6237299232570693E+04    1.6237299232570693E+04
         &END MASS
         &FORCE
              -6.4832604026973865E-10   -5.7134098753550380E-08   -5.3081010152501592E-08   -4.5690946381823498E-08
         &END FORCE
       &END NOSE
     &END THERMOSTAT
     &AVERAGES  T
       &RESTART_AVERAGES
         ITIMES_START  1
         AVECPU     3.1495646234577698E+01
         AVEHUGONIOT     0.0000000000000000E+00
         AVETEMP_BARO     0.0000000000000000E+00
         AVEPOT    -8.3065774799009941E+03
         AVEKIN     2.0519708299328587E+00
         AVETEMP     2.9998165107831363E+02
         AVEKIN_QM     0.0000000000000000E+00
         AVETEMP_QM     0.0000000000000000E+00
         AVEVOL     2.1331414786626332E+05
         AVECELL_A     4.8437460238121709E+01
         AVECELL_B     4.6608961231948342E+01
         AVECELL_C     9.4486306644281314E+01
         AVEALPHA     9.0000000000000028E+01
         AVEBETA     9.0000000000000028E+01
         AVEGAMMA     9.0000000000000028E+01
         AVE_ECONS     2.8128708969284316E-01
         AVE_PRESS     0.0000000000000000E+00
         AVE_PXX     0.0000000000000000E+00
       &END RESTART_AVERAGES
     &END AVERAGES
     &PRINT
       &TEMP_KIND  SILENT
       &END TEMP_KIND
     &END PRINT
   &END MD
   &FREE_ENERGY
     &METADYN
       MIN_DISP    -1.0000000000000000E+00
       OLD_HILL_NUMBER  0
       OLD_HILL_STEP  0
       DO_HILLS  F
       STEP_START_VAL  79836
       NHILLS_START_VAL  0
       &METAVAR
         SCALE     1.0000000000000000E+00
         COLVAR  1
       &END METAVAR
       &PRINT
         &COLVAR  SILENT
           COMMON_ITERATION_LEVELS  3
           &EACH
             MD  1
           &END EACH
         &END COLVAR
       &END PRINT
     &END METADYN
   &END FREE_ENERGY
   &CONSTRAINT
     &COLLECTIVE
       COLVAR  1
       INTERMOLECULAR  T
       &RESTRAINT
         K     4.4625385281452931E-04
       &END RESTRAINT
     &END COLLECTIVE
     &COLVAR_RESTART
           1.3228082930199504E+01
     &END COLVAR_RESTART
   &END CONSTRAINT
   &PRINT
     &TRAJECTORY  SILENT
       &EACH
         MD  1
       &END EACH
     &END TRAJECTORY
     &VELOCITIES  SILENT
       &EACH
         MD  1
       &END EACH
     &END VELOCITIES
     &FORCES  SILENT
       UNIT eV*angstrom^-1
       &EACH
         MD  1
       &END EACH
     &END FORCES
     &RESTART  SILENT
       &EACH
         MD  1
       &END EACH
     &END RESTART
     &RESTART_HISTORY  SILENT
       &EACH
         MD  100
       &END EACH
     &END RESTART_HISTORY
   &END PRINT
 &END MOTION
 &FORCE_EVAL
   METHOD  QS
   &DFT
     BASIS_SET_FILE_NAME /users/gtocci/scratch_daint_3000/data_cp2k//BASIS_MOLOPT
     POTENTIAL_FILE_NAME /users/gtocci/scratch_daint_3000/data_cp2k//GTH_POTENTIALS
     WFN_RESTART_FILE_NAME ./GRAS-RESTART.wfn
     CHARGE  -1
     &SCF
       MAX_SCF  10
       EPS_SCF     9.9999999999999995E-07
       SCF_GUESS  RESTART
       &OT  T
         MINIMIZER  DIIS
         PRECONDITIONER  FULL_KINETIC
       &END OT
       &OUTER_SCF  T
         EPS_SCF     9.9999999999999995E-07
         MAX_SCF  30
       &END OUTER_SCF
       &PRINT
         &RESTART  SILENT
           ADD_LAST  NUMERIC
           &EACH
             QS_SCF  50
           &END EACH
         &END RESTART
       &END PRINT
     &END SCF
     &QS
       MAP_CONSISTENT  T
       EXTRAPOLATION  ASPC
       EXTRAPOLATION_ORDER  4
     &END QS
     &MGRID
       NGRIDS  5
       CUTOFF     4.6000000000000000E+02
     &END MGRID
     &XC
       DENSITY_CUTOFF     1.0000000000000000E-10
       GRADIENT_CUTOFF     1.0000000000000000E-10
       TAU_CUTOFF     1.0000000000000000E-10
       &XC_GRID
         XC_DERIV  SPLINE2_SMOOTH
       &END XC_GRID
       &XC_FUNCTIONAL  NO_SHORTCUT
         &LIBXC  T
           FUNCTIONAL XC_GGA_X_OPTB88_VDW
         &END LIBXC
         &VWN  T
         &END VWN
       &END XC_FUNCTIONAL
       &VDW_POTENTIAL
         POTENTIAL_TYPE  NON_LOCAL
         &NON_LOCAL
           TYPE  DRSLL
           VERBOSE_OUTPUT  T
           KERNEL_FILE_NAME /users/gtocci/scratch_daint_3000/data_cp2k//vdW_kernel_table.dat
         &END NON_LOCAL
       &END VDW_POTENTIAL
     &END XC
     &REAL_TIME_PROPAGATION
       INITIAL_WFN  SCF_WFN
     &END REAL_TIME_PROPAGATION
     &PRINT
       &MULLIKEN  SILENT
         FILENAME =GRAS.mulliken
       &END MULLIKEN
     &END PRINT
   &END DFT
   &SUBSYS
     &CELL
       A     2.5632000000000001E+01    0.0000000000000000E+00    0.0000000000000000E+00
       B     0.0000000000000000E+00    2.4664400000000022E+01    0.0000000000000000E+00
       C     0.0000000000000000E+00    0.0000000000000000E+00    5.0000000000000028E+01
       MULTIPLE_UNIT_CELL  1 1 1
     &END CELL
     &COORD
C   -2.1761223311233497E+01    3.7225237257871373E+00    4.4091226736800495E+00
C   -2.0337949758530662E+01    3.7267036788035450E+00    4.5903986778714270E+00
C   -1.9626602301892117E+01    4.9541080591788136E+00    4.5889780229851382E+00
C   -1.8198990519723441E+01    4.9487678299953446E+00    4.4486137797940986E+00
C   -2.1778731384221640E+01    6.1956298064066386E+00    4.6060206347241692E+00
C   -2.0339851258312866E+01    6.2261990062465946E+00    4.5952145451029525E+00
C   -1.9567074100759399E+01    7.4985538654639470E+00    4.6124261916643823E+00
C   -1.8136063022392069E+01    7.4591715145337956E+00    4.5871678053646567E+00
C   -2.1778702412797770E+01    8.6690398763828505E+00    4.6562265357981740E+00
C   -2.0331083780163770E+01    8.6998883517238372E+00    4.6764583046887678E+00
C   -1.9645266691363418E+01    9.9352519795929890E+00    4.6428021523859764E+00
C   -1.8206844234576817E+01    9.9007004385698156E+00    4.6276890162425195E+00
C   -2.1744412925338889E+01    1.1135422096245804E+01    4.6762932860243120E+00
C   -2.0342522212775744E+01    1.1131055109193699E+01    4.7461255586194264E+00
C   -1.9661116642558461E+01    1.2381455355093474E+01    4.8690830792356827E+00
C   -1.8225097514835475E+01    1.2317326384689695E+01    4.8188559230476304E+00
C   -2.1789852688740702E+01    1.3569719362702180E+01    4.7865347567741816E+00
C   -2.0328448103969787E+01    1.3624683040363475E+01    4.8452990983027986E+00
C   -1.9638826734969133E+01    2.5101904618633073E+00    4.5326903432823098E+00
C   -1.8202504752018385E+01    2.5279712859713239E+00    4.5522179374590417E+00
C   -1.7481951924259789E+01    3.7633709693926014E+00    4.4461481191001777E+00
C   -1.6101984328545768E+01    3.7482968810977919E+00    4.4311721130956139E+00
C   -1.5370014577517784E+01    4.9676710256684951E+00    4.3988226046902534E+00
C   -1.3933922799503060E+01    4.9919473703103243E+00    4.3866281133695351E+00
C   -1.7503313025512490E+01    6.1705414353118950E+00    4.5062947256347314E+00
C   -1.6056274328173568E+01    6.1711400541498334E+00    4.4433892144305016E+00
C   -1.5368553171653392E+01    7.4363261507500367E+00    4.3907190553514477E+00
C   -1.3948593020846889E+01    7.4060722634765570E+00    4.4223320329728502E+00
C   -1.7444630112147077E+01    8.6892009570712609E+00    4.5499603828201405E+00
C   -1.6030777256190841E+01    8.7072233493785820E+00    4.4854001850554583E+00
C   -1.5332588991349345E+01    9.9440906477638773E+00    4.5385600888243651E+00
C   -1.3925600394984453E+01    9.9161699417776745E+00    4.4560563755199389E+00
C   -1.7517238770419642E+01    1.1117353683085392E+01    4.6724006519049510E+00
C   -1.6061689564134220E+01    1.1136369462665229E+01    4.6235549815308019E+00
C   -1.5389896099406695E+01    1.2349826970010641E+01    4.6392203762919966E+00
C   -1.3938178179864668E+01    1.2360390109243873E+01    4.6726870825649458E+00
C   -1.7538645623966811E+01    1.3560846295107137E+01    4.7484441700694004E+00
C   -1.6093085506448453E+01    1.3561861014612019E+01    4.6743953748215619E+00
C   -1.5354622298256045E+01    2.5455057143520992E+00    4.5195875498252507E+00
C   -1.3893554226195894E+01    2.5532766242203460E+00    4.4067621726677251E+00
C   -1.3217089790356816E+01    3.7901862096458236E+00    4.3856849662346082E+00
C   -1.1820095512364116E+01    3.7633708482702350E+00    4.3307970635282480E+00
C   -1.1097328922492963E+01    5.0111692095017313E+00    4.4209086361506094E+00
C   -9.6691324048290852E+00    4.9957877674917679E+00    4.4773111388037190E+00
C   -1.3213558343189483E+01    6.2078459111876629E+00    4.4264689142037845E+00
C   -1.1775210563260471E+01    6.2373718569788617E+00    4.4372629262537204E+00
C   -1.1039305181149574E+01    7.4561014212727574E+00    4.5270533153616519E+00
C   -9.6347123701547392E+00    7.4289362398094427E+00    4.4944566546858349E+00
C   -1.3235261682852943E+01    8.6766728642903104E+00    4.4372585868444938E+00
C   -1.1782758361916393E+01    8.7028801119750909E+00    4.5328160687995886E+00
C   -1.1133957641312934E+01    9.9223582716953302E+00    4.5222599943705335E+00
C   -9.6831528012416204E+00    9.9050841890604779E+00    4.4076887598632402E+00
C   -1.3265655274184871E+01    1.1129466536013300E+01    4.5545956895072983E+00
C   -1.1824380241201105E+01    1.1198331590871282E+01    4.5613542573654131E+00
C   -1.1079260266735190E+01    1.2396322225308385E+01    4.5842241598517175E+00
C   -9.6740016019841306E+00    1.2388000417692767E+01    4.4548867046244514E+00
C   -1.3247603213945027E+01    1.3601362930715267E+01    4.6960215822866980E+00
C   -1.1822568519363131E+01    1.3594926413639154E+01    4.6448042650989798E+00
C   -1.1044547744292094E+01    2.5181005947063175E+00    4.2801715630105441E+00
C   -9.6259542848587021E+00    2.5061398827341046E+00    4.4633857197090201E+00
C   -2.1796651889735877E+01    1.6014626887765942E+01    4.7382750361747039E+00
C   -2.0363023947191888E+01    1.6030133070807857E+01    4.6335665719849253E+00
C   -1.9655300199607556E+01    1.7268070904402610E+01    4.5294617652189757E+00
C   -1.8221386361737384E+01    1.7296083078662903E+01    4.5550904972427810E+00
C   -2.1763753917998880E+01    1.8503012744304733E+01    4.5585757248542258E+00
C   -2.0354919817457201E+01    1.8520757733560636E+01    4.4452062557831464E+00
C   -1.9653984413000074E+01    1.9777097725581193E+01    4.5017238836438755E+00
C   -1.8188979169840582E+01    1.9810987826018945E+01    4.6246606940538175E+00
C   -2.1798103117160995E+01    2.0982995583651139E+01    4.4692275345080459E+00
C   -2.0365142740644615E+01    2.1011199184101468E+01    4.4917495843404431E+00
C   -1.9596386025227236E+01    2.2241143707066005E+01    4.5007455109700931E+00
C   -1.8178281781541962E+01    2.2248933512364022E+01    4.5700667343718742E+00
C   -2.1759102462733576E+01    2.3428081529974705E+01    4.4895800638654855E+00
C   -2.0346956517253066E+01    2.3452159762516082E+01    4.4662661957116523E+00
C   -1.9607713457295642E+01    2.4709234659925404E+01    4.4935435750913530E+00
C   -1.8194314779980690E+01    2.4732441938799294E+01    4.5631313046071611E+00
C   -2.1735490717883817E+01    2.5908070777912002E+01    4.3587634555149783E+00
C   -2.0339869712807726E+01    2.5934458368002502E+01    4.5425612752004589E+00
C   -1.9626502026620301E+01    1.4878595793600136E+01    4.7824469872915323E+00
C   -1.8188221687455464E+01    1.4816317392542064E+01    4.7934641909495364E+00
C   -1.7525862284912950E+01    1.6039234941195769E+01    4.6274573545388620E+00
C   -1.6086014445517200E+01    1.6096208344610403E+01    4.7202735928402682E+00
C   -1.5399441242266114E+01    1.7332763286546381E+01    4.8219016230643446E+00
C   -1.3971893762501354E+01    1.7329225612607623E+01    4.7968625149058930E+00
C   -1.7532495541071071E+01    1.8508791788690573E+01    4.5804829771089581E+00
C   -1.6091410033161043E+01    1.8562695154237947E+01    4.6482431376235436E+00
C   -1.5400785955942215E+01    1.9768103024111547E+01    4.6598211514386936E+00
C   -1.3937771711829086E+01    1.9777576103418998E+01    4.7070269011844230E+00
C   -1.7481475588678997E+01    2.1040844461213553E+01    4.7248562069794380E+00
C   -1.6066762749297318E+01    2.1042462950189087E+01    4.7020384131305333E+00
C   -1.5396224547155436E+01    2.2291129288540549E+01    4.6856270459588023E+00
C   -1.3966688252853652E+01    2.2313963600406723E+01    4.7503591941600094E+00
C   -1.7454349622968561E+01    2.3511151691181585E+01    4.5038745973507339E+00
C   -1.6024266851541825E+01    2.3519182780383900E+01    4.6155873483744552E+00
C   -1.5338798752558818E+01    2.4776641547125333E+01    4.5996936595120470E+00
C   -1.3930324382446846E+01    2.4769014347222928E+01    4.5627411726635883E+00
C   -1.7532515939225160E+01    2.5981453903614504E+01    4.5966845241364185E+00
C   -1.6069933340118254E+01    2.5969409861783173E+01    4.5053943864001527E+00
C   -1.5395292453384585E+01    1.4828680631745570E+01    4.7262350811512421E+00
C   -1.3971272692079173E+01    1.4864700474694017E+01    4.7742900407672479E+00
C   -1.3268716100778468E+01    1.6102294385287973E+01    4.8118876071919114E+00
C   -1.1838815254974071E+01    1.6138310721170036E+01    4.7441465834467218E+00
C   -1.1150329385449567E+01    1.7353301628013437E+01    4.6027571829348517E+00
C   -9.7515384130526677E+00    1.7342964822311185E+01    4.5327265516822246E+00
C   -1.3229329864384608E+01    1.8549965962492415E+01    4.7147035002673459E+00
C   -1.1836493002947154E+01    1.8588592948465731E+01    4.6062358391112719E+00
C   -1.1119822928519355E+01    1.9809221809028006E+01    4.5945520478345383E+00
C   -9.7054500415599687E+00    1.9781118386720927E+01    4.4797466472925533E+00
C   -1.3266782102833121E+01    2.1064825460414973E+01    4.6953442995897863E+00
C   -1.1840758160113946E+01    2.1024636167016460E+01    4.6764371723428990E+00
C   -1.1103199179597359E+01    2.2255771049727073E+01    4.5432736711150099E+00
C   -9.6740373652164404E+00    2.2204597447804012E+01    4.4655143053898474E+00
C   -1.3237470523104998E+01    2.3570260033492094E+01    4.6129992727650801E+00
C   -1.1794431388661911E+01    2.3517403151305707E+01    4.5116329696176081E+00
C   -1.1075750931730431E+01    2.4719132260394129E+01    4.3678548687915679E+00
C   -9.6607752299680527E+00    2.4752432520739273E+01    4.3803360667869615E+00
C   -1.3174490993915700E+01    2.5940852741561020E+01    4.4876631203576522E+00
C   -1.1784962596428457E+01    2.5961109232264704E+01    4.3403805368439397E+00
C   -1.1119169103895013E+01    1.4848071568782245E+01    4.7671494794751661E+00
C   -9.6794655210966205E+00    1.4860985975929086E+01    4.6754241293585075E+00
C   -8.9263907042097834E+00    3.7695095854933913E+00    4.4477673981869899E+00
C   -7.4948546354514631E+00    3.7894532507921812E+00    4.4169856615429133E+00
C   -6.7670113283531768E+00    5.0123997217339760E+00    4.4131756118516847E+00
C   -5.3685097746343082E+00    5.0054761352259067E+00    4.2705604743372705E+00
C   -8.9015590911406761E+00    6.2240683006378426E+00    4.5333875898827722E+00
C   -7.4893386421866550E+00    6.2112047338301943E+00    4.4447614640979127E+00
C   -6.8213870177645495E+00    7.4635987282770033E+00    4.4266165179524561E+00
C   -5.3754141663681159E+00    7.4616089625978441E+00    4.2897006705679184E+00
C   -8.9935914491279281E+00    8.6593050513601906E+00    4.3694788689143316E+00
C   -7.5682569798514532E+00    8.6753946020706927E+00    4.3617800816177956E+00
C   -6.8419699644092598E+00    9.9541907088033632E+00    4.3341411895233453E+00
C   -5.3884875796103531E+00    9.9063545882328405E+00    4.3427931088722760E+00
C   -8.9756335205885414E+00    1.1155597242931666E+01    4.3746049478703082E+00
C   -7.5537396711864764E+00    1.1186699431785911E+01    4.3123351551317741E+00
C   -6.7799868207062097E+00    1.2387672141918788E+01    4.4011040055577384E+00
C   -5.3440154137955087E+00    1.2367344086531583E+01    4.4645171781753197E+00
C   -8.9636127877475609E+00    1.3637124295004114E+01    4.5493292810005208E+00
C   -7.5257670103888685E+00    1.3613902556214278E+01    4.5040179605007093E+00
C   -6.8349442315537994E+00    2.5589498278164622E+00    4.2423035593428926E+00
C   -5.4462066308277874E+00    2.4998278543025121E+00    4.0546512239076726E+00
C   -4.7212589647149876E+00    3.7325546479691263E+00    4.0523623374429114E+00
C   -3.3047025070329039E+00    3.7761024181791969E+00    3.9907320749729953E+00
C   -2.5698400085796615E+00    5.0197463202112855E+00    4.0289004143866238E+00
C   -1.1406839014468866E+00    4.9818286918367019E+00    4.1075265032950989E+00
C   -4.6635300865840650E+00    6.2535994002014617E+00    4.2464981355428773E+00
C   -3.2411343848490266E+00    6.2472917311937870E+00    4.0889231375467423E+00
C   -2.5029402714601501E+00    7.4713184147589971E+00    4.0990519462917199E+00
C   -1.0716710498729176E+00    7.4704752753755832E+00    4.2762489528151599E+00
C   -4.6444587550208229E+00    8.6882950798966210E+00    4.2292622220165699E+00
C   -3.1915656245499813E+00    8.6899378131489602E+00    4.1807689768020344E+00
C   -2.4873650239290490E+00    9.9218581498275089E+00    4.2225158282463520E+00
C   -1.0621702784007219E+00    9.9435127894138340E+00    4.4092820266333179E+00
C   -4.6680048219892836E+00    1.1134560251505009E+01    4.3503216542598082E+00
C   -3.2667792882252913E+00    1.1154484248762213E+01    4.3114899625851404E+00
C   -2.5326427895755512E+00    1.2424518839688583E+01    4.5047037569018489E+00
C   -1.1197674780293776E+00    1.2402612581446148E+01    4.5728756762701881E+00
C   -4.6867211032888418E+00    1.3611707440581004E+01    4.5339705276559172E+00
C   -3.2629008293605812E+00    1.3622315259719150E+01    4.5828707943189650E+00
C   -2.5869214316992308E+00    2.5344180625466630E+00    4.0146328473865971E+00
C   -1.1394648123604396E+00    2.4919811939446359E+00    3.9649974487233366E+00
C   -4.3040429623848431E-01    3.7668392363805334E+00    4.0471618588404663E+00
C    1.0539199209220509E+00    3.7353350665763592E+00    4.1245253643058257E+00
C    1.7595718727558078E+00    4.9414110277622196E+00    4.3731125192995535E+00
C    3.1873808863685529E+00    4.9712923653960326E+00    4.4085954331514685E+00
C   -3.7361881946467518E-01    6.2233755207754644E+00    4.3000178862747447E+00
C    1.0592069000049962E+00    6.2009829796622400E+00    4.4840137580910211E+00
C    1.7192053585596343E+00    7.4212128858422570E+00    4.6532615575062417E+00
C    3.1365968911308419E+00    7.4309730875925561E+00    4.6661979271643572E+00
C   -3.5530831390136192E-01    8.7110651904544127E+00    4.4569118427189505E+00
C    1.0401218179976102E+00    8.6718403854991308E+00    4.6498480946359608E+00
C    1.7403463012077673E+00    9.9039610596544048E+00    4.6158121181544951E+00
C    3.1410571272385526E+00    9.9236895214605507E+00    4.6616249602699504E+00
C   -4.0538189240684436E-01    1.1177644247495024E+01    4.6289647368989293E+00
C    9.8232986712267856E-01    1.1155745211582358E+01    4.5945509458958096E+00
C    1.7040032878476725E+00    1.2376190900384088E+01    4.5880607320397555E+00
C    3.1327901918013645E+00    1.2347129275027903E+01    4.6193358182744761E+00
C   -4.5832668265936399E-01    1.3624229375513776E+01    4.6119074590706512E+00
C    9.7718789846659249E-01    1.3568820218235153E+01    4.6094279269062834E+00
C    1.7867902071967079E+00    2.4760577880134576E+00    4.1058294688269052E+00
C    3.1677310154354226E+00    2.4795387186873876E+00    4.3132970527496530E+00
C   -8.9683653908633278E+00    1.6114158775888324E+01    4.6039489904172797E+00
C   -7.5708996204382810E+00    1.6079059126752629E+01    4.5451849239072892E+00
C   -6.8907989140537582E+00    1.7293242499577225E+01    4.5049001560399837E+00
C   -5.4586797427185649E+00    1.7319064831875160E+01    4.5764458820107441E+00
C   -9.0370751488149708E+00    1.8548970622200155E+01    4.4557179221160688E+00
C   -7.5771318926638696E+00    1.8544719841900989E+01    4.4367092493773157E+00
C   -6.8462877552617112E+00    1.9749913344257003E+01    4.4048422084481764E+00
C   -5.4215710703378353E+00    1.9780398388398112E+01    4.4858469220734296E+00
C   -8.9355823584848615E+00    2.0994179512606621E+01    4.4820196956322524E+00
C   -7.5295513271466357E+00    2.0985551516550483E+01    4.4067183460302157E+00
C   -6.8301714908891826E+00    2.2244677795460703E+01    4.4332070896550713E+00
C   -5.3987435079893711E+00    2.2275445479578444E+01    4.4038307021534857E+00
C   -8.9819373836270167E+00    2.3464836950574469E+01    4.4063615404946788E+00
C   -7.5312238434438061E+00    2.3460168500368546E+01    4.3747917319434375E+00
C   -6.8430088611925228E+00    2.4735924259909854E+01    4.3475015348575896E+00
C   -5.4014454252688555E+00    2.4728837965612630E+01    4.2408619659103612E+00
C   -8.9370655869877762E+00    2.5943925161088025E+01    4.4605187711499514E+00
C   -7.5148959160653312E+00    2.5993675429345622E+01    4.3534096132336968E+00
C   -6.8065165162928070E+00    1.4840621662660709E+01    4.5962948433524948E+00
C   -5.4268985313526521E+00    1.4846854408603427E+01    4.5553655987039878E+00
C   -4.7271010167224894E+00    1.6103479489435124E+01    4.5160774461644895E+00
C   -3.3010314237530238E+00    1.6108252415446930E+01    4.5816651680441147E+00
C   -2.6105330297493139E+00    1.7313582756255254E+01    4.6174402607586318E+00
C   -1.1634604012348491E+00    1.7318023105954328E+01    4.6228179160484419E+00
C   -4.7521101881621490E+00    1.8527882990881533E+01    4.5621975077208656E+00
C   -3.3233525723328330E+00    1.8554815421092972E+01    4.6432862167480033E+00
C   -2.5831816222680000E+00    1.9775328420114921E+01    4.6407559442111443E+00
C   -1.1802108255003709E+00    1.9794810621530068E+01    4.5418641999953220E+00
C   -4.7438661518323020E+00    2.1022239983914702E+01    4.5323888610833087E+00
C   -3.2858673398321612E+00    2.1024460108150198E+01    4.5201619577057714E+00
C   -2.5524715511416760E+00    2.2231458413859357E+01    4.4744689079260587E+00
C   -1.0947589992346571E+00    2.2251989538596884E+01    4.4469057354248704E+00
C   -4.6838875215294209E+00    2.3497642693269860E+01    4.3159801653577938E+00
C   -3.2709109694200045E+00    2.3445202203174926E+01    4.2715766626548222E+00
C   -2.5967299534080017E+00    2.4702766239961207E+01    4.1035264349907941E+00
C   -1.1633480529365068E+00    2.4695986827914119E+01    4.1381969068516433E+00
C   -4.7140927790381717E+00    2.5939421967991592E+01    4.0569008967838140E+00
C   -3.2767023760398746E+00    2.5971848567759960E+01    4.0409006748494836E+00
C   -2.5472583398807505E+00    1.4846261687186562E+01    4.5901151470242523E+00
C   -1.1233251667393600E+00    1.4845446694098344E+01    4.5754874330754598E+00
C   -4.5921447162733425E-01    1.6084004438333462E+01    4.6777890719374904E+00
C    9.6952076431429191E-01    1.6055136896602857E+01    4.6482825834577381E+00
C    1.6891022433319915E+00    1.7290147795076763E+01    4.6077739577617862E+00
C    3.1286817368106608E+00    1.7244201388126054E+01    4.6723478704756287E+00
C   -4.6069294372335295E-01    1.8571916875115409E+01    4.5524720662376561E+00
C    9.7999757998404036E-01    1.8526674259841037E+01    4.5191335740655605E+00
C    1.6783763847446076E+00    1.9746643983101961E+01    4.4407050671532415E+00
C    3.1163464357792754E+00    1.9720654990343295E+01    4.4395346658776100E+00
C   -3.9434569697157867E-01    2.1019123344445585E+01    4.4903755708112110E+00
C    9.9890189411177333E-01    2.0977678764865342E+01    4.4279695436554727E+00
C    1.7119166246345801E+00    2.2246724911387400E+01    4.3881949653038781E+00
C    3.1473436613636929E+00    2.2216906792450459E+01    4.4873814185637988E+00
C   -4.4504954561562893E-01    2.3513119852195995E+01    4.3033247569867026E+00
C    1.0239123745388943E+00    2.3490509663660021E+01    4.3082141019531406E+00
C    1.7714434271868209E+00    2.4713975290720906E+01    4.1746821640570406E+00
C    3.2296423095821063E+00    2.4683663473486341E+01    4.3338820638981517E+00
C   -4.0452388967597680E-01    2.5907051072032687E+01    3.9705887931909691E+00
C    1.0704186649453102E+00    2.5926197272709260E+01    3.9820157602114046E+00
C    1.6816717536848127E+00    1.4854165884571458E+01    4.6359497672677241E+00
C    3.1166447543420444E+00    1.4771800754759923E+01    4.7954352753121068E+00
O    1.4358190836053427E+02    1.7145625710932055E+02    1.2701248330886907E+01
H    1.4361563065924446E+02    1.7225494489692713E+02    1.3214575611916265E+01
H    1.4415861424023751E+02    1.7175296978199441E+02    1.1931003426291262E+01
O    1.0072964703803737E+02    1.8693324555328283E+02    1.4283902031349573E+01
H    1.0124520688054855E+02    1.8769537074180514E+02    1.4009692094282988E+01
H    9.9844236613635942E+01    1.8711514598751086E+02    1.3878231297582724E+01
O    7.4412583015800422E+01    2.2773687151299333E+02    2.0703342214724852E+01
H    7.3636814928562060E+01    2.2789628630814224E+02    2.1310159473924745E+01
H    7.5000973932047827E+01    2.2700473615662366E+02    2.1146862624035624E+01
O    1.5882112047213545E+02    1.5872320569762974E+02    1.9015454941652965E+01
H    1.5782770856283608E+02    1.5869598022345292E+02    1.9312298695582481E+01
H    1.5919306394414463E+02    1.5954191868061838E+02    1.9483719764483649E+01
O    1.4656392338192785E+02    2.2337853801054794E+02    1.3030874154373882E+01
H    1.4703184229664137E+02    2.2419636665195921E+02    1.3415060812758353E+01
H    1.4560995668317344E+02    2.2370626505086889E+02    1.3025364922487793E+01
O    1.1071000498488583E+02    1.8250184772412160E+02    2.1622284656170475E+01
H    1.1150154680792430E+02    1.8270132407038861E+02    2.2251455376862353E+01
H    1.1086988774850114E+02    1.8155786837697244E+02    2.1326687355119766E+01
O    1.8847856114024751E+02    1.3728356681988686E+02    7.8455425267090488E+00
H    1.8862725348345128E+02    1.3626158967734733E+02    7.8096368696041596E+00
H    1.8916935984829465E+02    1.3766191978402009E+02    7.2445153500648605E+00
O    9.0501912957242439E+01    7.7138903078347170E+01    1.0108213989150460E+01
H    9.0855667788213353E+01    7.7491719223945509E+01    9.2555305099995060E+00
H    9.0009131958710668E+01    7.6303819140109255E+01    9.8480654114363535E+00
O    2.6990513141177036E+01    2.2377004636615985E+02    2.1983865620475903E+01
H    2.7749623793767253E+01    2.2392727194337377E+02    2.1426440498098604E+01
H    2.6496528520243295E+01    2.2312248012535102E+02    2.1401566510770422E+01
O    2.2033414239826067E+02    2.1033267655334356E+02    2.1858100364521647E+01
H    2.2051262847532303E+02    2.1020913402510777E+02    2.2832006144379758E+01
H    2.2121044027229385E+02    2.1064185238639962E+02    2.1489869657263444E+01
O    8.3606426525216165E+01    1.7814495172442875E+02    8.1306041687707111E+00
H    8.2771638061897306E+01    1.7761599613587254E+02    8.2876658506467837E+00
H    8.3725219576019256E+01    1.7868280547487853E+02    9.0135513390733681E+00
O    7.4238492077872124E+01    2.2526348961424287E+02    7.2205304156852632E+00
H    7.4417391163962563E+01    2.2628971193624935E+02    7.2959298695963719E+00
H    7.4207273004192572E+01    2.2486214967884581E+02    8.1085079423321247E+00
O    1.2355785427017020E+02    1.1845039579849463E+02    1.6447223610407541E+01
H    1.2287503600509731E+02    1.1799065125351521E+02    1.5918725183342277E+01
H    1.2401357392790956E+02    1.1784587820484464E+02    1.6989499270251944E+01
O    1.6791900543817809E+02    4.3385374472222118E+01    2.3134592677814826E+01
H    1.6698910039008680E+02    4.3303741119343336E+01    2.3107701998949587E+01
H    1.6826676697594809E+02    4.2458713062703978E+01    2.3201043181325737E+01
O    7.6760594960491403E+01    3.2728671513563529E+02    1.0738365130265450E+01
H    7.7199743875019919E+01    3.2798068198521963E+02    1.1339486204045015E+01
H    7.5807045333038786E+01    3.2735535080928304E+02    1.0898717050772348E+01
O    1.4016740849596752E+02    2.4200653451812897E+02    1.9288053978021487E+01
H    1.4109073101737329E+02    2.4159068988277627E+02    1.9512095767251090E+01
H    1.4007446382348573E+02    2.4188233713031542E+02    1.8334621721897271E+01
O    5.0766574880063821E+01    2.1227085216961672E+02    7.9928045070150509E+00
H    5.0406684519717381E+01    2.1161921201861520E+02    7.4044904870217678E+00
H    5.0212995784102787E+01    2.1304874036034246E+02    7.8532194133686763E+00
O    1.2553033449449067E+02    1.5894051033425907E+02    2.1863032601419196E+01
H    1.2579991367982467E+02    1.5882595593372702E+02    2.0946184196734208E+01
H    1.2458771456679875E+02    1.5863962164575622E+02    2.1970052290055715E+01
O    9.6694955855743657E+01    1.6224626437494899E+02    1.9208751951130406E+01
H    9.7235333836528312E+01    1.6214002203727472E+02    2.0004752182260642E+01