 # Version information for this restart file 
 # current date 2019-01-28 05:00:09.435
 # current working dir /scratch/snx3000/gtocci/gtocci/MEMBRANES/AIMD_US_IONS_GRA/potassium/aimd_us_pot/us_25
 # Program compiled at                             Thu Oct 11 21:49:41 CEST 2018
 # Program compiled on                                                  daint104
 # Program compiled for                                   CRAY_XC50-gfortran_gpu
 # Source code revision number                                     git:be74c20a5
 &GLOBAL
   PRINT_LEVEL  LOW
   PROJECT_NAME GRAS
   RUN_TYPE  MD
   WALLTIME 10200
 &END GLOBAL
 &MOTION
   &MD
     ENSEMBLE  NVT
     STEPS  100000
     TIMESTEP     9.9999999999999989E-01
     STEP_START_VAL  40045
     TIME_START_VAL     4.0044999999991858E+04
     ECONS_START_VAL    -8.3204962035372318E+03
     TEMPERATURE     3.0000000000000000E+02
     TEMP_KIND  T
     &BAROSTAT
       PRESSURE     1.0000000000000000E+00
       TIMECON     9.9999999999999986E+01
       VIRIAL  Z
     &END BAROSTAT
     &THERMOSTAT
       TYPE  NOSE
       REGION  GLOBAL
       &NOSE
         LENGTH  4
         TIMECON     9.9999999999999986E+01
         MTS  2
         &COORD
               1.8671999429204389E-01    9.9193201468359937E-01   -1.7015228015053985E+01    2.6459389516797721E+01
         &END COORD
         &VELOCITY
               1.1743149340109212E-05    1.7300890039919273E-04   -1.8230550314201992E-04   -1.9877561127310957E-04
         &END VELOCITY
         &MASS
               7.0145132684705392E+07    1.6237299232570693E+04    1.6237299232570693E+04    1.6237299232570693E+04
         &END MASS
         &FORCE
               1.8477019083298421E-10    5.3722470990203903E-07   -2.8577934232767279E-08   -2.5274717374240036E-08
         &END FORCE
       &END NOSE
     &END THERMOSTAT
     &AVERAGES  T
       &RESTART_AVERAGES
         ITIMES_START  1
         AVECPU     4.6533259233616121E+01
         AVEHUGONIOT     0.0000000000000000E+00
         AVETEMP_BARO     0.0000000000000000E+00
         AVEPOT    -8.3232611999549081E+03
         AVEKIN     2.0521028182785002E+00
         AVETEMP     3.0000094671412808E+02
         AVEKIN_QM     0.0000000000000000E+00
         AVETEMP_QM     0.0000000000000000E+00
         AVEVOL     2.1331414786628276E+05
         AVECELL_A     4.8437460238126128E+01
         AVECELL_B     4.6608961231944541E+01
         AVECELL_C     9.4486306644279452E+01
         AVEALPHA     9.0000000000000071E+01
         AVEBETA     9.0000000000000071E+01
         AVEGAMMA     9.0000000000000071E+01
         AVE_ECONS    -2.3726408810441795E+00
         AVE_PRESS     0.0000000000000000E+00
         AVE_PXX     0.0000000000000000E+00
       &END RESTART_AVERAGES
     &END AVERAGES
     &PRINT
       &TEMP_KIND  SILENT
       &END TEMP_KIND
     &END PRINT
   &END MD
   &FREE_ENERGY
     &METADYN
       MIN_DISP    -1.0000000000000000E+00
       OLD_HILL_NUMBER  0
       OLD_HILL_STEP  0
       DO_HILLS  F
       STEP_START_VAL  40045
       NHILLS_START_VAL  0
       &METAVAR
         SCALE     1.0000000000000000E+00
         COLVAR  1
       &END METAVAR
       &PRINT
         &COLVAR  SILENT
           COMMON_ITERATION_LEVELS  3
           &EACH
             MD  1
           &END EACH
         &END COLVAR
       &END PRINT
     &END METADYN
   &END FREE_ENERGY
   &CONSTRAINT
     &COLLECTIVE
       COLVAR  1
       INTERMOLECULAR  T
       &RESTRAINT
         K     4.4625385281452931E-04
       &END RESTRAINT
     &END COLLECTIVE
     &COLVAR_RESTART
           2.3621576661070542E+01
     &END COLVAR_RESTART
   &END CONSTRAINT
   &PRINT
     &TRAJECTORY  SILENT
       &EACH
         MD  1
       &END EACH
     &END TRAJECTORY
     &VELOCITIES  SILENT
       &EACH
         MD  1
       &END EACH
     &END VELOCITIES
     &FORCES  SILENT
       UNIT eV*angstrom^-1
       &EACH
         MD  1
       &END EACH
     &END FORCES
     &RESTART  SILENT
       &EACH
         MD  1
       &END EACH
     &END RESTART
     &RESTART_HISTORY  SILENT
       &EACH
         MD  100
       &END EACH
     &END RESTART_HISTORY
   &END PRINT
 &END MOTION
 &FORCE_EVAL
   METHOD  QS
   &DFT
     BASIS_SET_FILE_NAME /users/gtocci/scratch_daint_3000/data_cp2k//BASIS_MOLOPT
     POTENTIAL_FILE_NAME /users/gtocci/scratch_daint_3000/data_cp2k//GTH_POTENTIALS
     WFN_RESTART_FILE_NAME ./GRAS-RESTART.wfn
     CHARGE  1
     &SCF
       MAX_SCF  10
       EPS_SCF     9.9999999999999995E-07
       SCF_GUESS  RESTART
       &OT  T
         MINIMIZER  DIIS
         PRECONDITIONER  FULL_KINETIC
       &END OT
       &OUTER_SCF  T
         EPS_SCF     9.9999999999999995E-07
         MAX_SCF  30
       &END OUTER_SCF
       &PRINT
         &RESTART  SILENT
           ADD_LAST  NUMERIC
           &EACH
             QS_SCF  50
           &END EACH
         &END RESTART
       &END PRINT
     &END SCF
     &QS
       MAP_CONSISTENT  T
       EXTRAPOLATION  ASPC
       EXTRAPOLATION_ORDER  4
     &END QS
     &MGRID
       NGRIDS  5
       CUTOFF     4.6000000000000000E+02
     &END MGRID
     &XC
       DENSITY_CUTOFF     1.0000000000000000E-10
       GRADIENT_CUTOFF     1.0000000000000000E-10
       TAU_CUTOFF     1.0000000000000000E-10
       &XC_GRID
         XC_DERIV  SPLINE2_SMOOTH
       &END XC_GRID
       &XC_FUNCTIONAL  NO_SHORTCUT
         &LIBXC  T
           FUNCTIONAL XC_GGA_X_OPTB88_VDW
         &END LIBXC
         &VWN  T
         &END VWN
       &END XC_FUNCTIONAL
       &VDW_POTENTIAL
         POTENTIAL_TYPE  NON_LOCAL
         &NON_LOCAL
           TYPE  DRSLL
           VERBOSE_OUTPUT  T
           KERNEL_FILE_NAME /users/gtocci/scratch_daint_3000/data_cp2k//vdW_kernel_table.dat
         &END NON_LOCAL
       &END VDW_POTENTIAL
     &END XC
     &REAL_TIME_PROPAGATION
       INITIAL_WFN  SCF_WFN
     &END REAL_TIME_PROPAGATION
     &PRINT
       &MULLIKEN  SILENT
         FILENAME =GRAS.mulliken
       &END MULLIKEN
     &END PRINT
   &END DFT
   &SUBSYS
     &CELL
       A     2.5632000000000001E+01    0.0000000000000000E+00    0.0000000000000000E+00
       B     0.0000000000000000E+00    2.4664400000000022E+01    0.0000000000000000E+00
       C     0.0000000000000000E+00    0.0000000000000000E+00    5.0000000000000028E+01
       MULTIPLE_UNIT_CELL  1 1 1
     &END CELL
     &COORD
C    2.1452596841086855E+00    2.0117845449207068E+00   -1.2526069976452481E+00
C    3.5889163981242844E+00    1.9966534542003151E+00   -1.3029083827028416E+00
C    4.3048719705839149E+00    3.2343967908504569E+00   -1.3715227916198378E+00
C    5.7118647281504886E+00    3.2672869803157236E+00   -1.2664292653758176E+00
C    2.1421186629113240E+00    4.4919238572489828E+00   -1.2339537732146704E+00
C    3.5901963842228124E+00    4.4793253097460708E+00   -1.3300263870298115E+00
C    4.2838591099370351E+00    5.7160431766645994E+00   -1.2794423478915449E+00
C    5.6964583917540628E+00    5.7629694917855270E+00   -1.3208357184858290E+00
C    2.1683399915930823E+00    6.9562631907639076E+00   -1.4352719345094773E+00
C    3.5570895376166400E+00    6.9345482675649039E+00   -1.3786346232344728E+00
C    4.2630990742215120E+00    8.2043604467797557E+00   -1.4510441761025850E+00
C    5.6651559494972403E+00    8.1633598208988101E+00   -1.5342380120343631E+00
C    2.1243531873794765E+00    9.3869109746968302E+00   -1.4981057227405381E+00
C    3.5540283804290382E+00    9.4252123924973628E+00   -1.5183098869452276E+00
C    4.2928872318113216E+00    1.0639844770977906E+01   -1.5607059004389372E+00
C    5.7246194394749930E+00    1.0624279079222120E+01   -1.5859921359594478E+00
C    2.1224387111106120E+00    1.1852811156355285E+01   -1.4155060389314562E+00
C    3.5319837940679184E+00    1.1831067309480163E+01   -1.4690162936095024E+00
C    4.2865520769241092E+00    7.6050403549000534E-01   -1.2431034970401886E+00
C    5.6997014790292564E+00    7.8333851560891166E-01   -1.1919291308157467E+00
C    6.3954566153377463E+00    2.0369424109248970E+00   -1.2138122516428316E+00
C    7.8008264311396074E+00    1.9836626573857514E+00   -1.1416736433770869E+00
C    8.4928929773510902E+00    3.1977799950753565E+00   -1.1493093029732819E+00
C    9.9202524293119172E+00    3.1981992106802197E+00   -1.1876404500113051E+00
C    6.4424269455172301E+00    4.4995700607292877E+00   -1.2931463313137930E+00
C    7.8234299080097518E+00    4.4334961704706934E+00   -1.2097077536176100E+00
C    8.5102189422994261E+00    5.6522763901857997E+00   -1.2906599950848163E+00
C    9.9724008649120996E+00    5.6352742505464546E+00   -1.3959730406745339E+00
C    6.4001310126096964E+00    6.9473542723386474E+00   -1.4343770896171393E+00
C    7.8249359134158212E+00    6.8948507888284931E+00   -1.3955549737732587E+00
C    8.5336820315240445E+00    8.0997996457254242E+00   -1.5408621956468767E+00
C    9.9538206938926006E+00    8.1381848253603870E+00   -1.6184106816799677E+00
C    6.4049378404619635E+00    9.3914927356420694E+00   -1.5888703599385843E+00
C    7.8334871077325667E+00    9.3714020913937954E+00   -1.5825929668341312E+00
C    8.5440105508040851E+00    1.0608789929550278E+01   -1.6101517293668601E+00
C    9.9579267927367621E+00    1.0586193794511196E+01   -1.5754153365412551E+00
C    6.4390850168438476E+00    1.1857069836308437E+01   -1.5234469466556728E+00
C    7.8601135604225352E+00    1.1849088468314818E+01   -1.5292222964443840E+00
C    8.5329544178816885E+00    7.4122863699552133E-01   -1.1458089622909606E+00
C    9.9669249171623644E+00    7.4834466264059551E-01   -1.2049276998736589E+00
C    1.0682937989158116E+01    1.9533342903304989E+00   -1.2149805824779794E+00
C    1.2091261823548304E+01    1.9788948020367849E+00   -1.2983341670297646E+00
C    1.2834300552361952E+01    3.2226235442509212E+00   -1.4407472609015692E+00
C    1.4268820272635411E+01    3.2007713889667770E+00   -1.4587187211423027E+00
C    1.0667391991725577E+01    4.3946955234579796E+00   -1.2722088145770643E+00
C    1.2081399613177449E+01    4.4202242384116719E+00   -1.4095981591295703E+00
C    1.2785909471395115E+01    5.6480787552156748E+00   -1.4415944109279910E+00
C    1.4201486063645348E+01    5.6487138837629622E+00   -1.3941333740334694E+00
C    1.0683971303704560E+01    6.9016507734720953E+00   -1.5110954853641088E+00
C    1.2105242218795738E+01    6.9228115173352798E+00   -1.4745856743356234E+00
C    1.2810308063443022E+01    8.1348395906038444E+00   -1.5519724896629910E+00
C    1.4231757619278893E+01    8.1205094575738759E+00   -1.4380618050695315E+00
C    1.0674385720121471E+01    9.3563770369570225E+00   -1.6422817915253787E+00
C    1.2103729076330835E+01    9.3800247813339031E+00   -1.6527542128455888E+00
C    1.2788135900954787E+01    1.0604368012056954E+01   -1.6696765667083546E+00
C    1.4247342730162520E+01    1.0611126133376422E+01   -1.6186637309688547E+00
C    1.0656062569169988E+01    1.1842278765319470E+01   -1.6200820658432948E+00
C    1.2110299736324841E+01    1.1864863861036499E+01   -1.6773990234930838E+00
C    1.2810662018462651E+01    7.1679181887919097E-01   -1.3194791658426519E+00
C    1.4264236381194642E+01    7.4852078178167358E-01   -1.2400403890863527E+00
C    2.1623437466083586E+00    1.4258483886173286E+01   -1.6341950186353120E+00
C    3.5800576259480290E+00    1.4290984099224683E+01   -1.6369557364043148E+00
C    4.2847863485051505E+00    1.5530612958966039E+01   -1.5863356002710667E+00
C    5.6958425111367053E+00    1.5531198859312385E+01   -1.4044704337017022E+00
C    2.1668120502438750E+00    1.6732419438522598E+01   -1.5392945810814165E+00
C    3.5709207602123865E+00    1.6748274518651549E+01   -1.4554474523263565E+00
C    4.2733332290511177E+00    1.7971859550443842E+01   -1.3179603735902958E+00
C    5.6550545356087492E+00    1.7994090843115583E+01   -1.2340668737361109E+00
C    2.1626044246076237E+00    1.9187928578311062E+01   -1.4126740386276850E+00
C    3.5715153919780978E+00    1.9222363407870425E+01   -1.3280985474703944E+00
C    4.2982109272829812E+00    2.0488650307363280E+01   -1.3310164323449523E+00
C    5.7139801413084390E+00    2.0494694758123135E+01   -1.2878410903895379E+00
C    2.1483349978530928E+00    2.1705908146649421E+01   -1.4571746683976108E+00
C    3.5851358181188910E+00    2.1698702130111627E+01   -1.4350650432192120E+00
C    4.3343397389218250E+00    2.2952384649677558E+01   -1.3774211861139165E+00
C    5.7392821605772939E+00    2.2959322447941908E+01   -1.2954548911886250E+00
C    2.1788522913669817E+00    2.4198186687079154E+01   -1.3647714959143584E+00
C    3.6050808558135805E+00    2.4195838943081778E+01   -1.2989708573111283E+00
C    4.2660799895566885E+00    1.3089789811848235E+01   -1.5141838019468847E+00
C    5.7103427115285035E+00    1.3094437301500884E+01   -1.5227572997327616E+00
C    6.4451668787238461E+00    1.4323549381156139E+01   -1.4144342221147996E+00
C    7.8585665897283707E+00    1.4306718187347414E+01   -1.3368808434616806E+00
C    8.5781396539243850E+00    1.5526567868400177E+01   -1.2864580084123669E+00
C    9.9739718814334495E+00    1.5521581415899414E+01   -1.4293559450629258E+00
C    6.4072781760763453E+00    1.6788940474257664E+01   -1.3251491897432435E+00
C    7.8476297194556546E+00    1.6778866582812149E+01   -1.2862464435990411E+00
C    8.5606953881130678E+00    1.8011938992812087E+01   -1.2220771803772628E+00
C    9.9919395943100060E+00    1.8034686426243844E+01   -1.3272551538075259E+00
C    6.4222623297836723E+00    1.9236360719876775E+01   -1.2153910616168413E+00
C    7.8519997598191633E+00    1.9264295012025315E+01   -1.1260657951301407E+00
C    8.5833045965981576E+00    2.0492738609127784E+01   -1.2258561613960650E+00
C    1.0016089120608747E+01    2.0467918307450443E+01   -1.2579384235591271E+00
C    6.4368108620366957E+00    2.1733468592002321E+01   -1.2894690706314296E+00
C    7.8639641886848057E+00    2.1736740782166326E+01   -1.2269813537992877E+00
C    8.5876602453147779E+00    2.2976493770432953E+01   -1.1150026329542260E+00
C    1.0001436109845248E+01    2.2981192985446462E+01   -1.2759900819437029E+00
C    6.4228684166488854E+00    2.4216100763186081E+01   -1.1960368086410931E+00
C    7.8414311785586612E+00    2.4175840431952551E+01   -1.1075287435420906E+00
C    8.5948258917681422E+00    1.3094456020195992E+01   -1.4666909204751746E+00
C    1.0026020976687260E+01    1.3079222325057620E+01   -1.5032176700695659E+00
C    1.0732746691483753E+01    1.4275196136397666E+01   -1.5112232647249462E+00
C    1.2164523803068404E+01    1.4283942089091546E+01   -1.6074285658094423E+00
C    1.2846581722981714E+01    1.5515227370932983E+01   -1.7133385235418142E+00
C    1.4269616192869067E+01    1.5540589089753411E+01   -1.8278224995412695E+00
C    1.0663914710962654E+01    1.6779522945245422E+01   -1.4916043209759569E+00
C    1.2118012253548679E+01    1.6716713967718913E+01   -1.6894806108703113E+00
C    1.2853476755026367E+01    1.7963281815524002E+01   -1.6137142159808540E+00
C    1.4273261297364689E+01    1.7999892079220995E+01   -1.6707265808249374E+00
C    1.0730520559616370E+01    1.9247152183479312E+01   -1.2350570142917243E+00
C    1.2171475042792553E+01    1.9213886453285912E+01   -1.5053301794289071E+00
C    1.2873951893407479E+01    2.0462875699964076E+01   -1.4596693236312561E+00
C    1.4276978986034923E+01    2.0480092443977139E+01   -1.5294585510446375E+00
C    1.0745081612249527E+01    2.1725195263160742E+01   -1.3105272513487924E+00
C    1.2194394564622604E+01    2.1697608249858668E+01   -1.3489671780867487E+00
C    1.2884046932138800E+01    2.2941526573080480E+01   -1.2848524617130743E+00
C    1.4297600273349593E+01    2.2949577113092030E+01   -1.2807171797641859E+00
C    1.0692880784484771E+01    2.4194638245312788E+01   -1.2875977612931460E+00
C    1.2138929021670689E+01    2.4155425845559357E+01   -1.2926972982733111E+00
C    1.2891790192106754E+01    1.3058912353788530E+01   -1.7279850435716393E+00
C    1.4330552380839876E+01    1.3046014175009944E+01   -1.7415841435487505E+00
C    1.4970478504648119E+01    1.9862052686187157E+00   -1.2961555675657577E+00
C    1.6421798898921988E+01    1.9718528103147555E+00   -1.2159380551123782E+00
C    1.7092118432018069E+01    3.2148965886000469E+00   -1.3208823113241677E+00
C    1.8528234865423890E+01    3.2457292765101844E+00   -1.4042549976475438E+00
C    1.4958128575039051E+01    4.4178924995442506E+00   -1.3985469280287721E+00
C    1.6387141562822745E+01    4.4512518398386227E+00   -1.3675566471003500E+00
C    1.7097632805938964E+01    5.7070275947682099E+00   -1.3598439433836924E+00
C    1.8528683088717386E+01    5.6814580966620349E+00   -1.3678787956597609E+00
C    1.4927106582895348E+01    6.8694864749320521E+00   -1.3829134410097670E+00
C    1.6390977070130610E+01    6.9087037191330278E+00   -1.4127768661269768E+00
C    1.7102926198199484E+01    8.1426929599891764E+00   -1.5112534817784196E+00
C    1.8530766626914996E+01    8.1374648550192887E+00   -1.4957975268772419E+00
C    1.4954164867832198E+01    9.3536686695321922E+00   -1.5595643082459918E+00
C    1.6395138586726365E+01    9.3813448990638530E+00   -1.6306598901284086E+00
C    1.7144234354394897E+01    1.0591429507433533E+01   -1.6575746672861531E+00
C    1.8550209779590769E+01    1.0535564201170878E+01   -1.6248039362726610E+00
C    1.5015021438872996E+01    1.1815730986261197E+01   -1.7102564235195041E+00
C    1.6447478404394992E+01    1.1875801371883615E+01   -1.6930562710522188E+00
C    1.7125392621168700E+01    7.4155940656256114E-01   -1.2612028810502418E+00
C    1.8570871942785612E+01    7.6344465545163254E-01   -1.3581420370192665E+00
C    1.9277910663485482E+01    2.0044182526813925E+00   -1.3743899406780213E+00
C    2.0679448277562773E+01    2.0192737905252418E+00   -1.3871337642520882E+00
C    2.1373017515764843E+01    3.2380362285243107E+00   -1.3573799659521624E+00
C    2.2786958958010111E+01    3.2323725772460117E+00   -1.1942282214276108E+00
C    1.9281526760286759E+01    4.4500837599741425E+00   -1.3427519284376737E+00
C    2.0696521389065946E+01    4.4982723713458679E+00   -1.3621618812830953E+00
C    2.1405376886300029E+01    5.6866639701852284E+00   -1.3450994239475615E+00
C    2.2839544666462832E+01    5.6977837508455318E+00   -1.3026734179848227E+00
C    1.9245193740361540E+01    6.9079247813827473E+00   -1.3868375277667788E+00
C    2.0685882639440294E+01    6.9094368840809786E+00   -1.3513904556970116E+00
C    2.1363391468453027E+01    8.1339072621091546E+00   -1.4119317257693804E+00
C    2.2795916104376566E+01    8.1376443394694711E+00   -1.4470120964178275E+00
C    1.9271317251029178E+01    9.3375835517781205E+00   -1.5544472340059872E+00
C    2.0664738179912050E+01    9.3670481572299860E+00   -1.5288290593492027E+00
C    2.1350676920601980E+01    1.0584124967674553E+01   -1.4510357741846531E+00
C    2.2755897649148956E+01    1.0594832918636946E+01   -1.4176508880225918E+00
C    1.9225582849950463E+01    1.1814689115702540E+01   -1.6333419386009642E+00
C    2.0648186428451389E+01    1.1807506453879821E+01   -1.5440219474336627E+00
C    2.1404080518106245E+01    7.8219087721321801E-01   -1.2747674227901391E+00
C    2.2839772527805266E+01    7.6015413585602931E-01   -1.2389029044694011E+00
C    2.3546734714333056E+01    1.9728659454613993E+00   -1.2626487926457397E+00
C    2.4945339686565809E+01    1.9918838052272125E+00   -1.2582489160946579E+00
C    2.5680905498011846E+01    3.2191548455757668E+00   -1.1934298562955730E+00
C    2.7065535527891992E+01    3.2455369305145765E+00   -1.2858067106303259E+00
C    2.3521671643144821E+01    4.4552242676238452E+00   -1.1718016603583288E+00
C    2.4941963896678867E+01    4.4539069551348538E+00   -1.1679543583555032E+00
C    2.5657858770307385E+01    5.7277543601001373E+00   -1.3099847324293525E+00
C    2.7083589355485799E+01    5.7023480979832746E+00   -1.3150084163868754E+00
C    2.3522699092379838E+01    6.9355714570163221E+00   -1.3656459293737513E+00
C    2.4954729679010200E+01    6.9731628221605657E+00   -1.3564124216855324E+00
C    2.5640807944071788E+01    8.1676499683163932E+00   -1.5223444481286568E+00
C    2.7095587241873059E+01    8.1582750232616359E+00   -1.5539709854613957E+00
C    2.3494294844487719E+01    9.3962475593156274E+00   -1.5202573486563291E+00
C    2.4903678381306786E+01    9.3815482990473615E+00   -1.4743243221369251E+00
C    2.5607449678282034E+01    1.0625275856119597E+01   -1.4559966913290299E+00
C    2.7059878756786123E+01    1.0633195140415253E+01   -1.4659403899449011E+00
C    2.3508066850045047E+01    1.1865672809279507E+01   -1.3945256757819089E+00
C    2.4930729997301317E+01    1.1857109530163916E+01   -1.3679776159436405E+00
C    2.5673827166403647E+01    7.5684994274416528E-01   -1.2659874320096716E+00
C    2.7074101951088462E+01    7.4719647111454368E-01   -1.2678693988071665E+00
C    1.5006829933873792E+01    1.4316240450592076E+01   -1.7665501811827047E+00
C    1.6418915927157663E+01    1.4343949818606992E+01   -1.7358498807668070E+00
C    1.7136532006875097E+01    1.5547758777336762E+01   -1.7390613318879762E+00
C    1.8531186898514161E+01    1.5565491406917241E+01   -1.6435660769944254E+00
C    1.4978146139560270E+01    1.6759056319897802E+01   -1.7873259457379325E+00
C    1.6408127345785779E+01    1.6789060312260730E+01   -1.7850375741260589E+00
C    1.7121209790747198E+01    1.8039377950939755E+01   -1.6725720084875453E+00
C    1.8543256393841407E+01    1.8030261245468036E+01   -1.5226913034478105E+00
C    1.4950960943670559E+01    1.9245458612809312E+01   -1.5940680512403800E+00
C    1.6391187763042744E+01    1.9267248692095404E+01   -1.6047987014500673E+00
C    1.7114798727646768E+01    2.0508766879481584E+01   -1.4252431661997718E+00
C    1.8566408174345277E+01    2.0494868769460837E+01   -1.2965269749903838E+00
C    1.5003483100127903E+01    2.1728912997735289E+01   -1.3942325162094529E+00
C    1.6424550891939468E+01    2.1742360630214591E+01   -1.3267390915610684E+00
C    1.7163885219952355E+01    2.2946926864064263E+01   -1.1644076856103927E+00
C    1.8567807707803180E+01    2.2959953068091760E+01   -1.2927133439959198E+00
C    1.5035389547919095E+01    2.4208468963284243E+01   -1.1896174593781137E+00
C    1.6449762541602478E+01    2.4197149153162542E+01   -1.1585760923025845E+00
C    1.7129378332417428E+01    1.3103077683206884E+01   -1.7715572273935378E+00
C    1.8547238981658477E+01    1.3055582141102231E+01   -1.7490766245881622E+00
C    1.9249942938561151E+01    1.4321621796213748E+01   -1.5911240118972692E+00
C    2.0654783447088615E+01    1.4277004789836990E+01   -1.5019527263612178E+00
C    2.1360200571648921E+01    1.5499048247151949E+01   -1.4883803311064090E+00
C    2.2785017574599745E+01    1.5515363345698413E+01   -1.4836435782459076E+00
C    1.9243706398803266E+01    1.6794095440046654E+01   -1.4973568083872100E+00
C    2.0652670839337631E+01    1.6765564083877454E+01   -1.4874500110007460E+00
C    2.1362675795251086E+01    1.8017335604254583E+01   -1.5278706508941378E+00
C    2.2793220072442995E+01    1.7977024458078141E+01   -1.5937660657424053E+00
C    1.9264635662120234E+01    1.9247951789110438E+01   -1.4090792637353131E+00
C    2.0654543705354481E+01    1.9256249961298145E+01   -1.4522285079561346E+00
C    2.1376935846840436E+01    2.0462951061298490E+01   -1.4619994708874915E+00
C    2.2806484239919008E+01    2.0462516448577098E+01   -1.4782707389972221E+00
C    1.9302159782954263E+01    2.1711158869895556E+01   -1.2451076254854934E+00
C    2.0675420129221074E+01    2.1720404570626407E+01   -1.3785105758028819E+00
C    2.1395671603725464E+01    2.2952289283211719E+01   -1.3952103569419707E+00
C    2.2812179486089828E+01    2.2906432409444246E+01   -1.2713479124886218E+00
C    1.9253360293020901E+01    2.4202730174788019E+01   -1.3434233965758766E+00
C    2.0706440561245245E+01    2.4207895940159375E+01   -1.3419860962360621E+00
C    2.1354633533909517E+01    1.3049444569822999E+01   -1.4619409607640075E+00
C    2.2814022579969667E+01    1.3055872760272893E+01   -1.4463772381805873E+00
C    2.3513447899257766E+01    1.4272984620335018E+01   -1.5061694905634784E+00
C    2.4948194379943839E+01    1.4303964566655109E+01   -1.5475424970673610E+00
C    2.5640787434453788E+01    1.5544976055534846E+01   -1.5722414724878206E+00
C    2.7104352495363376E+01    1.5515095712805053E+01   -1.5910723756187424E+00
C    2.3505027927881745E+01    1.6755875185452730E+01   -1.5939781897322562E+00
C    2.4909099738231603E+01    1.6750999646512874E+01   -1.5525065371303297E+00
C    2.5613462651369939E+01    1.7963918666189024E+01   -1.5311828239046141E+00
C    2.7043046458871846E+01    1.7940118555239387E+01   -1.4541257343410201E+00
C    2.3463018302423780E+01    1.9199497559736255E+01   -1.5628235804923729E+00
C    2.4901637250732211E+01    1.9193720126070971E+01   -1.5330941879273574E+00
C    2.5647338092932596E+01    2.0419955215873188E+01   -1.5468448227562939E+00
C    2.7066993937651606E+01    2.0427734895111875E+01   -1.4846227660104288E+00
C    2.3542654801873521E+01    2.1673309930235106E+01   -1.3790343351820271E+00
C    2.4954742888544036E+01    2.1700269820895901E+01   -1.4232626774232311E+00
C    2.5682819848339783E+01    2.2952283831739933E+01   -1.4137292490525735E+00
C    2.7123409858260022E+01    2.2901900533980346E+01   -1.4558819523503326E+00
C    2.3517691827851468E+01    2.4175613885898915E+01   -1.2105213449993681E+00
C    2.4964035492948632E+01    2.4192554739243256E+01   -1.3184838494623934E+00
C    2.5645279120283874E+01    1.3074395924169840E+01   -1.4539773643292142E+00
C    2.7063957887197052E+01    1.3082065112595716E+01   -1.5628093589397776E+00
O    4.3668453479955144E+02    1.3866998623245532E+01    1.7230837783211872E+01
H    4.3618841167126880E+02    1.4664040086476396E+01    1.7483606413787307E+01
H    4.3612641170814601E+02    1.3232332151089683E+01    1.6666302776279696E+01
O    3.4483667373359748E+02    2.5667282813737584E+00    1.7489507174693703E+01
H    3.4461713064047814E+02    3.5289814947780269E+00    1.7393025662563385E+01
H    3.4476457971900101E+02    2.5360089210503478E+00    1.8475361795226132E+01
O    4.0765799157859772E+02    1.0440441830898779E+02    2.2589303139518262E+00
H    4.0790705054880470E+02    1.0481742310986283E+02    3.0951019905823647E+00
H    4.0767764881965752E+02    1.0512099994450008E+02    1.6245258099184456E+00
O    5.0995978179029356E+02    3.6850506274665790E+01    4.1916077183429135E+00
H    5.0920455436456803E+02    3.6731372035928750E+01    4.7657651302688180E+00
H    5.0966508497798270E+02    3.7531845234798567E+01    3.5657388921709430E+00
O    3.9477129922398433E+02    1.3140987566898272E+02    1.1723281812749391E+01
H    3.9409761033263925E+02    1.3211393351942965E+02    1.1889301565388164E+01
H    3.9425420599926673E+02    1.3059764926334054E+02    1.1450705918843260E+01
O    4.2189935470574994E+02    3.4081845535064900E+01    4.5964172469830418E+00
H    4.2253074354038046E+02    3.3810032314506948E+01    5.3415110122382412E+00
H    4.2169949083272570E+02    3.5063540738752522E+01    4.7164276955132829E+00
O    4.3108586299740711E+02    7.6031191778668557E+01    5.4828068726920147E+00
H    4.3046524009841733E+02    7.6467096384604787E+01    6.1137909828407313E+00
H    4.3047734320178597E+02    7.5526038152022451E+01    4.8999742078355570E+00
O    3.7634114048658813E+02    5.6144399116332998E+01    6.3796098698375614E+00
H    3.7643038428667535E+02    5.7123923074292122E+01    6.3497679594729446E+00
H    3.7542436610887410E+02    5.5801329307272553E+01    6.3087690322194572E+00
O    2.6889447328213663E+02    1.4071855321807413E+02    1.4242775223796301E+01
H    2.6867727895289647E+02    1.3982955207045720E+02    1.4588652024916501E+01
H    2.6825822087992077E+02    1.4133003683047156E+02    1.4724745732112662E+01
O    4.3018066109315862E+02    1.6050408364196386E+02    7.9621546037080702E+00
H    4.2944395920407345E+02    1.6072217299201958E+02    8.5661557411790543E+00
H    4.3064211684590651E+02    1.5979915111730207E+02    8.4706374466082419E+00
O    3.0930586836816872E+02    1.1459865304967883E+02    7.6658210618954774E+00
H    3.0913847075818069E+02    1.1540546573985137E+02    8.2410907929705477E+00
H    3.0958183874529271E+02    1.1504590297956331E+02    6.8160350089777006E+00
O    2.8203967408338099E+02    1.2373949261850851E+02    4.8357520956977655E+00
H    2.8118900210616914E+02    1.2414267573792277E+02    5.1919826203096413E+00
H    2.8275138115005092E+02    1.2412773022910102E+02    5.3585885260595205E+00
O    3.7608019797539583E+02   -1.1953559918446853E+01    1.7647156703772775E+00
H    3.7682979421941815E+02   -1.1683675181100927E+01    2.3806045568923224E+00
H    3.7528709309443542E+02   -1.1825912297266035E+01    2.3245819257874727E+00
O    3.5184259906320432E+02    7.4077150051324637E+01    1.6082216493042600E+00
H    3.5140406950444975E+02    7.4960186163670301E+01    1.8227723254478190E+00
H    3.5277518941230528E+02    7.4340799289756546E+01    1.3126473966601337E+00
O    2.7562414394536802E+02    2.0160821646433553E+02    1.2059962793956052E+01
H    2.7474081420319197E+02    2.0140768678302408E+02    1.2450969735360834E+01
H    2.7577754424938837E+02    2.0255380911435810E+02    1.2246903850208948E+01
O    4.1585115441122417E+02    1.1870664286462406E+02    1.9096204564835477E+00
H    4.1491008578857816E+02    1.1876213055091036E+02    2.2665650438245293E+00
H    4.1623781846083989E+02    1.1787771511311914E+02    2.3451575797191340E+00
O    4.3132660289633446E+02    1.5186798691247660E+02    2.1595597464799248E+00
H    4.3202522810748695E+02    1.5260088219554342E+02    2.1938713759887527E+00
H    4.3145735936995936E+02    1.5141155442453049E+02    3.0626995684255287E+00
O    3.4860811276250854E+02    8.8868564142991076E+01    1.5712921169497635E+01
H    3.4888364751127864E+02    8.9048015837796640E+01    1.6602830905114114E+01
H    3.4879677390818171E+02    8.9715336910601437E+01    1.5183424500596262E+01
O    3.9537544638465391E+02    1.2461515279913887E+02    8.0295462210520654E+00
H    3.9438704460283856E+02    1.2472216421953402E+02    8.0494644093763075E+00