 # Version information for this restart file 
 # current date 2019-01-28 03:26:13.531
 # current working dir /scratch/snx3000/gtocci/gtocci/MEMBRANES/AIMD_US_IONS_GRA/potassium/aimd_us_pot/us_5
 # Program compiled at                             Thu Oct 11 21:49:41 CEST 2018
 # Program compiled on                                                  daint104
 # Program compiled for                                   CRAY_XC50-gfortran_gpu
 # Source code revision number                                     git:be74c20a5
 &GLOBAL
   PRINT_LEVEL  LOW
   PROJECT_NAME GRAS
   RUN_TYPE  MD
   WALLTIME 10200
 &END GLOBAL
 &MOTION
   &MD
     ENSEMBLE  NVT
     STEPS  100000
     TIMESTEP     9.9999999999999989E-01
     STEP_START_VAL  41447
     TIME_START_VAL     4.1446999999989639E+04
     ECONS_START_VAL    -8.3205754437458017E+03
     TEMPERATURE     3.0000000000000000E+02
     TEMP_KIND  T
     &BAROSTAT
       PRESSURE     1.0000000000000000E+00
       TIMECON     9.9999999999999986E+01
       VIRIAL  Z
     &END BAROSTAT
     &THERMOSTAT
       TYPE  NOSE
       REGION  GLOBAL
       &NOSE
         LENGTH  4
         TIMECON     9.9999999999999986E+01
         MTS  2
         &COORD
               1.4650836682606677E-01    9.5391494704059063E+00   -7.3655012322666051E+00    6.8446222684069262E+00
         &END COORD
         &VELOCITY
               1.0853362003976814E-06    4.5221194125709708E-05   -8.0094538265105145E-05    1.3506037309062306E-05
         &END VELOCITY
         &MASS
               7.0145132684705392E+07    1.6237299232570693E+04    1.6237299232570693E+04    1.6237299232570693E+04
         &END MASS
         &FORCE
               3.0370073270134242E-09   -5.3421249684804389E-08   -5.6465057451949952E-08   -5.2094878790204678E-08
         &END FORCE
       &END NOSE
     &END THERMOSTAT
     &AVERAGES  T
       &RESTART_AVERAGES
         ITIMES_START  1
         AVECPU     4.6522180463265194E+01
         AVEHUGONIOT     0.0000000000000000E+00
         AVETEMP_BARO     0.0000000000000000E+00
         AVEPOT    -8.3232716349690563E+03
         AVEKIN     2.0521329706984441E+00
         AVETEMP     3.0000535475570848E+02
         AVEKIN_QM     0.0000000000000000E+00
         AVETEMP_QM     0.0000000000000000E+00
         AVEVOL     2.1331414786628055E+05
         AVECELL_A     4.8437460238125105E+01
         AVECELL_B     4.6608961231944804E+01
         AVECELL_C     9.4486306644279466E+01
         AVEALPHA     9.0000000000000057E+01
         AVEBETA     9.0000000000000057E+01
         AVEGAMMA     9.0000000000000057E+01
         AVE_ECONS    -1.8931581779155371E+00
         AVE_PRESS     0.0000000000000000E+00
         AVE_PXX     0.0000000000000000E+00
       &END RESTART_AVERAGES
     &END AVERAGES
     &PRINT
       &TEMP_KIND  SILENT
       &END TEMP_KIND
     &END PRINT
   &END MD
   &FREE_ENERGY
     &METADYN
       MIN_DISP    -1.0000000000000000E+00
       OLD_HILL_NUMBER  0
       OLD_HILL_STEP  0
       DO_HILLS  F
       STEP_START_VAL  41447
       NHILLS_START_VAL  0
       &METAVAR
         SCALE     1.0000000000000000E+00
         COLVAR  1
       &END METAVAR
       &PRINT
         &COLVAR  SILENT
           COMMON_ITERATION_LEVELS  3
           &EACH
             MD  1
           &END EACH
         &END COLVAR
       &END PRINT
     &END METADYN
   &END FREE_ENERGY
   &CONSTRAINT
     &COLLECTIVE
       COLVAR  1
       INTERMOLECULAR  T
       &RESTRAINT
         K     4.4625385281452931E-04
       &END RESTRAINT
     &END COLLECTIVE
     &COLVAR_RESTART
           4.7243153322141085E+00
     &END COLVAR_RESTART
   &END CONSTRAINT
   &PRINT
     &TRAJECTORY  SILENT
       &EACH
         MD  1
       &END EACH
     &END TRAJECTORY
     &VELOCITIES  SILENT
       &EACH
         MD  1
       &END EACH
     &END VELOCITIES
     &FORCES  SILENT
       UNIT eV*angstrom^-1
       &EACH
         MD  1
       &END EACH
     &END FORCES
     &RESTART  SILENT
       &EACH
         MD  1
       &END EACH
     &END RESTART
     &RESTART_HISTORY  SILENT
       &EACH
         MD  100
       &END EACH
     &END RESTART_HISTORY
   &END PRINT
 &END MOTION
 &FORCE_EVAL
   METHOD  QS
   &DFT
     BASIS_SET_FILE_NAME /users/gtocci/scratch_daint_3000/data_cp2k//BASIS_MOLOPT
     POTENTIAL_FILE_NAME /users/gtocci/scratch_daint_3000/data_cp2k//GTH_POTENTIALS
     WFN_RESTART_FILE_NAME ./GRAS-RESTART.wfn
     CHARGE  1
     &SCF
       MAX_SCF  10
       EPS_SCF     9.9999999999999995E-07
       SCF_GUESS  RESTART
       &OT  T
         MINIMIZER  DIIS
         PRECONDITIONER  FULL_KINETIC
       &END OT
       &OUTER_SCF  T
         EPS_SCF     9.9999999999999995E-07
         MAX_SCF  30
       &END OUTER_SCF
       &PRINT
         &RESTART  SILENT
           ADD_LAST  NUMERIC
           &EACH
             QS_SCF  50
           &END EACH
         &END RESTART
       &END PRINT
     &END SCF
     &QS
       MAP_CONSISTENT  T
       EXTRAPOLATION  ASPC
       EXTRAPOLATION_ORDER  4
     &END QS
     &MGRID
       NGRIDS  5
       CUTOFF     4.6000000000000000E+02
     &END MGRID
     &XC
       DENSITY_CUTOFF     1.0000000000000000E-10
       GRADIENT_CUTOFF     1.0000000000000000E-10
       TAU_CUTOFF     1.0000000000000000E-10
       &XC_GRID
         XC_DERIV  SPLINE2_SMOOTH
       &END XC_GRID
       &XC_FUNCTIONAL  NO_SHORTCUT
         &LIBXC  T
           FUNCTIONAL XC_GGA_X_OPTB88_VDW
         &END LIBXC
         &VWN  T
         &END VWN
       &END XC_FUNCTIONAL
       &VDW_POTENTIAL
         POTENTIAL_TYPE  NON_LOCAL
         &NON_LOCAL
           TYPE  DRSLL
           VERBOSE_OUTPUT  T
           KERNEL_FILE_NAME /users/gtocci/scratch_daint_3000/data_cp2k//vdW_kernel_table.dat
         &END NON_LOCAL
       &END VDW_POTENTIAL
     &END XC
     &REAL_TIME_PROPAGATION
       INITIAL_WFN  SCF_WFN
     &END REAL_TIME_PROPAGATION
     &PRINT
       &MULLIKEN  SILENT
         FILENAME =GRAS.mulliken
       &END MULLIKEN
     &END PRINT
   &END DFT
   &SUBSYS
     &CELL
       A     2.5632000000000001E+01    0.0000000000000000E+00    0.0000000000000000E+00
       B     0.0000000000000000E+00    2.4664400000000022E+01    0.0000000000000000E+00
       C     0.0000000000000000E+00    0.0000000000000000E+00    5.0000000000000028E+01
       MULTIPLE_UNIT_CELL  1 1 1
     &END CELL
     &COORD
C   -9.4322901665739014E+00    8.4600998679620751E+00    2.9543754502466268E-01
C   -7.9882058850362654E+00    8.4595776076768612E+00    2.9162252561649821E-01
C   -7.2986014816904730E+00    9.7043145190345736E+00    3.7454824705416578E-01
C   -5.8743747776683408E+00    9.6394762976450519E+00    4.0616973365371506E-01
C   -9.4425995879813645E+00    1.0911680167282940E+01    3.7204747161360840E-01
C   -7.9959235156159671E+00    1.0928742423078669E+01    3.9083709791610044E-01
C   -7.2658468631462805E+00    1.2142481791869510E+01    3.5185407626833298E-01
C   -5.8442413271285574E+00    1.2125350645059884E+01    4.1301521093495486E-01
C   -9.3971916878398929E+00    1.3376121729189139E+01    5.0988786290166288E-01
C   -7.9756582098786692E+00    1.3392469433213719E+01    4.0021869661044768E-01
C   -7.2417721890637869E+00    1.4607362728094916E+01    2.3703081675944582E-01
C   -5.8144190768027117E+00    1.4592556788949725E+01    1.3196530474206361E-01
C   -9.3865858061697285E+00    1.5831680830390951E+01    2.7099492700914252E-01
C   -7.9805990623587943E+00    1.5853408578345084E+01    9.8843993064760799E-02
C   -7.2844714880383421E+00    1.7102542840675330E+01   -7.6602743314828281E-03
C   -5.8358706163912650E+00    1.7076036536981889E+01    1.3408510664990270E-01
C   -9.4289172563989823E+00    1.8326230118094397E+01    2.2131293055616938E-01
C   -8.0118434724314511E+00    1.8322592113598002E+01    1.2809413708755929E-01
C   -7.2483987860626335E+00    7.2334090536155786E+00    2.6122490939845683E-01
C   -5.8235922518083161E+00    7.1975321639897922E+00    3.4529996396652268E-01
C   -5.1346821991297533E+00    8.4393537924399560E+00    3.6548112667240562E-01
C   -3.7119279885511922E+00    8.4586911975303352E+00    2.4808346926394204E-01
C   -3.0073880915649744E+00    9.6931487776820067E+00    7.0959878774437130E-02
C   -1.5569111135701366E+00    9.7159127683704796E+00    6.2292140882953206E-02
C   -5.1323210129597578E+00    1.0876916043807441E+01    3.9613972293517780E-01
C   -3.6842492203796304E+00    1.0900763100026158E+01    2.5051879351108913E-01
C   -2.9791570372617340E+00    1.2122088047286720E+01    2.2424257908549097E-01
C   -1.5561586255546784E+00    1.2146330641491705E+01    1.8760550321284288E-02
C   -5.1381507992662838E+00    1.3370885417845148E+01    3.1356141295212736E-01
C   -3.6983198479539969E+00    1.3372640171497126E+01    2.8354096292907566E-01
C   -2.9940005167513104E+00    1.4588797411977254E+01    2.3030504277047928E-01
C   -1.5862134510191874E+00    1.4622356111914225E+01    8.5007601053238582E-02
C   -5.1320171156525944E+00    1.5836914030579686E+01    1.5364094390434865E-01
C   -3.7175880939787369E+00    1.5838211195166101E+01    3.0113723095005085E-01
C   -3.0433190128678853E+00    1.7126916889960544E+01    2.7546007002661910E-01
C   -1.6145749085033454E+00    1.7098460116692632E+01    2.0597365539165566E-01
C   -5.1849834516730100E+00    1.8332209947821728E+01    1.8295795203436196E-01
C   -3.7691261128313198E+00    1.8387759920403887E+01    1.8218633483333188E-01
C   -2.9801149897077259E+00    7.2203539189439825E+00    2.0706857756917291E-01
C   -1.6076234982397106E+00    7.2430639386383930E+00    1.4652650403191905E-01
C   -8.8020093429049895E-01    8.4891902198086893E+00    4.4360060965774550E-02
C    5.4953188258072216E-01    8.4420091348530164E+00    6.5883769653488744E-02
C    1.2959699401574587E+00    9.6334784102581139E+00    8.7222739151808379E-02
C    2.7155484904850113E+00    9.6848072474457414E+00    2.3496837350878802E-01
C   -8.6491762096473668E-01    1.0943490090411764E+01    1.9893399710921609E-02
C    5.7307886922079732E-01    1.0876030575261785E+01   -1.7774151853854378E-02
C    1.2559674543616492E+00    1.2156635574655395E+01    1.1796667622608501E-02
C    2.6837961863275153E+00    1.2185097539592801E+01    2.5095105797629547E-01
C   -8.6773995944971771E-01    1.3389694348214050E+01    2.3203038714178500E-02
C    5.7708152798048462E-01    1.3404435486359857E+01    5.5812627319299882E-02
C    1.2657751187419621E+00    1.4641060582567370E+01    2.8343140803587119E-01
C    2.6769257949093115E+00    1.4572822917168450E+01    4.5804181062303534E-01
C   -8.6367490945620151E-01    1.5853853727182685E+01    1.6541323569580696E-01
C    5.6641771834578192E-01    1.5858199095046901E+01    2.1717905531852785E-01
C    1.2890687187421199E+00    1.7131464356736895E+01    3.4426507708092052E-01
C    2.6943426816449589E+00    1.7078990533676325E+01    5.3214694097108295E-01
C   -8.7216217854305522E-01    1.8357214771852416E+01    1.7021005247037255E-01
C    5.7983234697236263E-01    1.8345915758687781E+01    2.2735278122266753E-01
C    1.2877983930493528E+00    7.2133451116593017E+00    1.5901761643812012E-01
C    2.7074276354984734E+00    7.2227804968891105E+00    3.3734773402868606E-01
C   -9.4188471864414929E+00    2.0818493113754656E+01    1.3941740802218625E-01
C   -8.0137051974921061E+00    2.0804982429636890E+01    1.0875612674585532E-01
C   -7.3009152556657746E+00    2.2038411594244046E+01    1.3125145407103386E-01
C   -5.8862918993767641E+00    2.2033064739557009E+01    1.5425480942789249E-01
C   -9.4292534237468306E+00    2.3279940508189267E+01    1.0448597095443057E-01
C   -7.9965859583390744E+00    2.3285014612003330E+01    1.0738882348954716E-01
C   -7.3195383773177349E+00    2.4501654732240564E+01    1.9824462236057958E-01
C   -5.9007236765692639E+00    2.4470340483141925E+01    1.7839142217869880E-01
C   -9.4502395585430534E+00    2.5740467511976945E+01    2.1474257009814363E-01
C   -8.0186407277308298E+00    2.5730287728001834E+01    2.0208424096974978E-01
C   -7.3164516724263464E+00    2.6950345643092220E+01    2.6506470193423104E-01
C   -5.8921029780423950E+00    2.6952028223068488E+01    1.5168882687926885E-01
C   -9.4193232220387095E+00    2.8226731193693077E+01    3.0871706509539032E-01
C   -8.0148607421323579E+00    2.8204376193216564E+01    2.6500441416642989E-01
C   -7.2494497884316482E+00    2.9423062178038705E+01    2.8865670956616180E-01
C   -5.8368305784725649E+00    2.9422559506377958E+01    2.4502755485212299E-01
C   -9.3887568710583853E+00    3.0662522480592607E+01    4.4898476428183731E-01
C   -7.9441437042682894E+00    3.0659456918758398E+01    3.0209578425922629E-01
C   -7.3511154431854839E+00    1.9580524101471418E+01    1.6894345103347724E-01
C   -5.8805381851812291E+00    1.9550436437594719E+01    1.6715771526739817E-01
C   -5.1694397661597673E+00    2.0764524967314923E+01    1.6620488894132607E-01
C   -3.7772712443661480E+00    2.0777140650908006E+01   -6.2603733713364279E-02
C   -3.0489329805178285E+00    2.2013424838425870E+01    6.0891189122001515E-03
C   -1.6123129229643491E+00    2.2031108037030883E+01    1.4749973365669147E-01
C   -5.1712511084059685E+00    2.3236540800188841E+01    1.0118397062330013E-01
C   -3.7269251711163198E+00    2.3259519330288857E+01   -1.1254997953715803E-02
C   -3.0264283459337329E+00    2.4534418023122040E+01   -9.8208446796508642E-02
C   -1.5830443349829095E+00    2.4508619013039958E+01   -1.1018752224162343E-02
C   -5.1742077287262234E+00    2.5692512449087541E+01    2.5278785829731129E-02
C   -3.7541499115749293E+00    2.5731140387947249E+01   -1.3964164009947121E-02
C   -3.0180177015787764E+00    2.6981922799580964E+01   -2.0792911779171828E-02
C   -1.5736633674620544E+00    2.7003955476994690E+01   -2.9212517735507731E-02
C   -5.1434233144619927E+00    2.8180700357198813E+01    1.4081156558207009E-01
C   -3.7185875102406674E+00    2.8174792546694899E+01    5.5450137893009781E-02
C   -3.0115750860036870E+00    2.9399147717840549E+01    1.5558593591539541E-01
C   -1.6041749932537439E+00    2.9437269963460519E+01    1.0598263913812958E-01
C   -5.1114883191901370E+00    3.0649718398901495E+01    3.1038535670469219E-01
C   -3.6782088101576176E+00    3.0658129026318399E+01    2.4730007500920340E-01
C   -3.0342220684106551E+00    1.9577724070205779E+01    9.8772672458303564E-03
C   -1.6183402918409520E+00    1.9565132123705055E+01    2.8243456587300590E-02
C   -8.8622008276027264E-01    2.0784822081323927E+01    2.0711428200702808E-01
C    5.2806784650767458E-01    2.0798051342887216E+01    3.4197863898771536E-01
C    1.2851186730294548E+00    2.2001204750736047E+01    3.3893576983165374E-01
C    2.7088869819019368E+00    2.1970569490029622E+01    3.9765037363212291E-01
C   -9.0465104819684672E-01    2.3236108370954920E+01    9.7429236403596131E-02
C    5.4458156337818919E-01    2.3236537061468894E+01    2.0060087284570810E-01
C    1.2654449001532362E+00    2.4443522489096402E+01    2.8789156524864895E-01
C    2.6953355351400883E+00    2.4444821827466626E+01    4.7966894206074340E-01
C   -8.7199018082504909E-01    2.5769662393012705E+01    2.8834018415391665E-02
C    5.7317479148481199E-01    2.5684653040245728E+01    1.6356336103536359E-01
C    1.2659327477101492E+00    2.6934416617042785E+01    3.2974130792402973E-01
C    2.6808811400280907E+00    2.6913754112597275E+01    4.5403673352955493E-01
C   -8.6850294438645304E-01    2.8219294227928771E+01    8.2728457271599470E-02
C    5.3125598803466700E-01    2.8203028337862087E+01    2.0027158072163331E-01
C    1.2288289870948799E+00    2.9421081161547882E+01    3.5718982123571835E-01
C    2.6506543881508469E+00    2.9414839191122333E+01    4.9556987079765208E-01
C   -8.7500336149903368E-01    3.0695013286568695E+01    1.5607969070079639E-01
C    5.6162027382621038E-01    3.0674642237125276E+01    1.9176204975778086E-01
C    1.2503768948281824E+00    1.9563991973510280E+01    3.3479181343433229E-01
C    2.6873258690189208E+00    1.9531216998967917E+01    4.3944890983492574E-01
C    3.3998654367995789E+00    8.4355742853140470E+00    4.1979346078658025E-01
C    4.7963365754054630E+00    8.4468576876819412E+00    6.7416267016455489E-01
C    5.5057046044640190E+00    9.6581168495745278E+00    6.9438808217370029E-01
C    6.9309741054626492E+00    9.6617728077283456E+00    8.8358539002771419E-01
C    3.3986827374421469E+00    1.0939267816413146E+01    3.2622476469980322E-01
C    4.8015025787655121E+00    1.0899849301635424E+01    5.8446627071045576E-01
C    5.5222227330074292E+00    1.2132946303957606E+01    8.0806311995485036E-01
C    6.9439767145061557E+00    1.2143920848795789E+01    8.9140800402790499E-01
C    3.3895689239478859E+00    1.3373393131982890E+01    5.6599907962742013E-01
C    4.8285074884724484E+00    1.3377598096154275E+01    7.6233099391478176E-01
C    5.5105267370017756E+00    1.4638398595852376E+01    8.6637083302491813E-01
C    6.9782170071218061E+00    1.4605835695446540E+01    9.4293608561910702E-01
C    3.3596945874433253E+00    1.5813560622949948E+01    5.8040027057950294E-01
C    4.7843280351204749E+00    1.5859014096824477E+01    7.7311510094800995E-01
C    5.5245109346922261E+00    1.7068389173842750E+01    7.4227406802759499E-01
C    6.9575813048333996E+00    1.7106113117062659E+01    8.2675685871949178E-01
C    3.3543046803551029E+00    1.8316685891094416E+01    5.1554104773411713E-01
C    4.7849526722040743E+00    1.8284890894924825E+01    6.6941746737422114E-01
C    5.5487735823559587E+00    7.2137619710955994E+00    7.0582948755712616E-01
C    6.9755283774252437E+00    7.2162469647867846E+00    7.7228272562616884E-01
C    7.6742942306523103E+00    8.4197614158677041E+00    9.8704063023713584E-01
C    9.0656513225879376E+00    8.4610955525788309E+00    9.6377035831606583E-01
C    9.7962488364689762E+00    9.7068207478514470E+00    9.5104368758395086E-01
C    1.1199091466780670E+01    9.7194913078939091E+00    8.7408754091224283E-01
C    7.6561802201746527E+00    1.0900880611762377E+01    9.3375663611921711E-01
C    9.0432171015489686E+00    1.0936867398405136E+01    9.7718205457684604E-01
C    9.7818692059391754E+00    1.2141694322397129E+01    8.8798917625307849E-01
C    1.1206690656942706E+01    1.2154741991204082E+01    7.8820474866188284E-01
C    7.6687475278974588E+00    1.3395642876412399E+01    9.9246359485341673E-01
C    9.1227852827475466E+00    1.3399267332568995E+01    8.9226358338682232E-01
C    9.8590034318785893E+00    1.4640803918245952E+01    8.9256562912452442E-01
C    1.1283142319831859E+01    1.4638929078698572E+01    8.5506391956111127E-01
C    7.6710022247618728E+00    1.5844525703170319E+01    8.8549712534291602E-01
C    9.1161207790718457E+00    1.5840410891113299E+01    7.8264600143561425E-01
C    9.8319392508568964E+00    1.7111536841302787E+01    7.2653368535278873E-01
C    1.1263325735833133E+01    1.7087009968337206E+01    6.3256897781708099E-01
C    7.6673509439604137E+00    1.8316784824999914E+01    7.5155131568382794E-01
C    9.1028252852030551E+00    1.8342851579781804E+01    7.0980949529773607E-01
C    9.8119356310170964E+00    7.2291471422472400E+00    9.0947893598807084E-01
C    1.1242246918082575E+01    7.2602556232456239E+00    9.7663062977554460E-01
C    1.1961969610305841E+01    8.4863115697378575E+00    8.7547570622558035E-01
C    1.3392317613449626E+01    8.4958789482408434E+00    7.7947412551964534E-01
C    1.4067725888749331E+01    9.7199009017526627E+00    5.7740900685143104E-01
C    1.5464579647564445E+01    9.6670627522240373E+00    4.1294369568965189E-01
C    1.1907721762832896E+01    1.0957229432408587E+01    7.4311682377872679E-01
C    1.3383903603905331E+01    1.0990163658303089E+01    6.0297254848027770E-01
C    1.4091097321399998E+01    1.2187082775185173E+01    6.2883316815270807E-01
C    1.5497213109309888E+01    1.2165265670316744E+01    4.9766052093540764E-01
C    1.1964661600757532E+01    1.3400863722196878E+01    7.8498199153125958E-01
C    1.3363808970132290E+01    1.3410599750491311E+01    7.3141881917300566E-01
C    1.4097932543864102E+01    1.4637634615998136E+01    7.1149545921096791E-01
C    1.5518691553552662E+01    1.4598142926706759E+01    4.6604901197484672E-01
C    1.1960636130197955E+01    1.5860651573934152E+01    8.1833613861965004E-01
C    1.3377151840296802E+01    1.5870642671253709E+01    7.6735744043989207E-01
C    1.4090909606748818E+01    1.7080964729118296E+01    5.2840449629130104E-01
C    1.5515088229983851E+01    1.7069126006625257E+01    3.1755384229741268E-01
C    1.1959859364383645E+01    1.8299422798678357E+01    4.3305445620957722E-01
C    1.3406175779434497E+01    1.8328652028409703E+01    4.2308287987575011E-01
C    1.4112799524361858E+01    7.2646664732587203E+00    6.7138468182471012E-01
C    1.5537688911357257E+01    7.2169981371949277E+00    4.8795464109730108E-01
C    3.4116099189425384E+00    2.0757174453544199E+01    4.8548320253690919E-01
C    4.7902238061818068E+00    2.0786142894277397E+01    7.3181100492828977E-01
C    5.5250114432027431E+00    2.2015920018005264E+01    7.2958712120987046E-01
C    6.9509593166043500E+00    2.1995804672648166E+01    7.6109528216945965E-01
C    3.3919350182318211E+00    2.3213420820208167E+01    5.7635209767199291E-01
C    4.8298498895266748E+00    2.3263403024334568E+01    7.8568373463198093E-01
C    5.5723766402946584E+00    2.4459056538972170E+01    7.8326465032486425E-01
C    6.9891970776736292E+00    2.4392495397741769E+01    8.6685324566154154E-01
C    3.3586006852616732E+00    2.5674486751382997E+01    5.2065603831635132E-01
C    4.8185411666204496E+00    2.5703016410471733E+01    6.3480054702363065E-01
C    5.5546247424772801E+00    2.6926319234000154E+01    6.2603000274240383E-01
C    6.9994851569065855E+00    2.6921933944418935E+01    6.9433722640772844E-01
C    3.3777410431665098E+00    2.8193781245371508E+01    5.3893611570551547E-01
C    4.7975282576709919E+00    2.8169078982879252E+01    5.6014749983399514E-01
C    5.5474445686650515E+00    2.9388133266730954E+01    7.1655332420378148E-01
C    7.0262568525869442E+00    2.9404413264361310E+01    6.6922203658553825E-01
C    3.4128160738533642E+00    3.0642150898852755E+01    5.2249141584726844E-01
C    4.8529560762630384E+00    3.0625414809442223E+01    6.5755627699933750E-01
C    5.4998620307069448E+00    1.9537642193246054E+01    7.6844767325323216E-01
C    6.9320404739805079E+00    1.9558952255518030E+01    7.1215743288715938E-01
C    7.6720499393198098E+00    2.0765860470540478E+01    6.8768832725204221E-01
C    9.0849180125412392E+00    2.0749633463879192E+01    5.1669818049103022E-01
C    9.7534312976194659E+00    2.2026015466273410E+01    5.0349424488456718E-01
C    1.1191997567702760E+01    2.2009449602336186E+01    3.4588339874153379E-01
C    7.7050821044954549E+00    2.3205921384153445E+01    7.6538291928840863E-01
C    9.0953172781258917E+00    2.3262064685077959E+01    7.0935278144156022E-01
C    9.8297542869425545E+00    2.4507988871206109E+01    6.6098497025019054E-01
C    1.1224951946573004E+01    2.4478702071693814E+01    5.0743169017121748E-01
C    7.6719382250899102E+00    2.5681622407706467E+01    7.7815385415304328E-01
C    9.1103040928276862E+00    2.5733800900604539E+01    7.6320963575156153E-01
C    9.8280674776253019E+00    2.6958924614324857E+01    6.3064715611123012E-01
C    1.1270274532285072E+01    2.6952201545252926E+01    5.6659981245992952E-01
C    7.7398420215620360E+00    2.8161073657467380E+01    6.6016470335950728E-01
C    9.1364317755332056E+00    2.8205022982163669E+01    6.7991689888199047E-01
C    9.8043250043172900E+00    2.9406135793936489E+01    7.0224922353147101E-01
C    1.1256364715944875E+01    2.9437665341801285E+01    7.7505018757072697E-01
C    7.7288432532178062E+00    3.0648893084549595E+01    7.3881100237545139E-01
C    9.1411947214616625E+00    3.0683762628529696E+01    7.9098917286968973E-01
C    9.7990471084108517E+00    1.9543513723143267E+01    4.5604727436921971E-01
C    1.1225730691348010E+01    1.9544248053872856E+01    3.3407809152527551E-01
C    1.1942612483307419E+01    2.0772099066791899E+01    2.1714401080738183E-01
C    1.3339794984002115E+01    2.0800186062059034E+01    1.3258825563140858E-01
C    1.4030478384895389E+01    2.2054669280415343E+01    1.6712434098156567E-01
C    1.5479301727264435E+01    2.2067161372971000E+01    9.3784250882728862E-02
C    1.1882077437779408E+01    2.3248317933030563E+01    4.0710744774773600E-01
C    1.3321686484014327E+01    2.3257950686814205E+01    2.3719783850999770E-01
C    1.4056611245433247E+01    2.4496594084818298E+01    3.3005985261021986E-01
C    1.5461878087895728E+01    2.4463855078300575E+01    2.1645167528085629E-01
C    1.1952276696061730E+01    2.5706581142280516E+01    5.4918824345996686E-01
C    1.3405249440056222E+01    2.5735435578423342E+01    4.1357787992447309E-01
C    1.4076721114813164E+01    2.7020299050047484E+01    3.9174014863881368E-01
C    1.5489605503225304E+01    2.6996573308512051E+01    3.1598267711296457E-01
C    1.1939119718355011E+01    2.8212469171446628E+01    5.4252831135544877E-01
C    1.3364500964489924E+01    2.8239008334679315E+01    5.2865738828662145E-01
C    1.4068744850984396E+01    2.9460349768332300E+01    5.5748900633756315E-01
C    1.5502845826659772E+01    2.9455013987615622E+01    4.5619844300289575E-01
C    1.1934946269251025E+01    3.0697630889362035E+01    8.6458388271389386E-01
C    1.3393668728734728E+01    3.0702966921682584E+01    7.2157686081406858E-01
C    1.4066548222596586E+01    1.9572890611284969E+01    2.9503596327471576E-01
C    1.5522817135606656E+01    1.9579999186293811E+01    2.3242535346219009E-01
O    3.0455200967645413E+02    2.1681152591615941E+02    9.0764208287398898E+00
H    3.0418970340839331E+02    2.1771275481124050E+02    8.9667810607023171E+00
H    3.0544287953628583E+02    2.1706918525133739E+02    9.3505707468761372E+00
O    2.6237915064599713E+02    1.0306396965719580E+02    1.9539164970202030E+01
H    2.6250468151396848E+02    1.0227295787238525E+02    2.0158965136579610E+01
H    2.6138870099489856E+02    1.0311390710276451E+02    1.9223274088721730E+01
O    2.5775259881327679E+02    1.8750057096008373E+02    3.5223555053650193E+00
H    2.5862701799182742E+02    1.8713174922262451E+02    3.5369453605708356E+00
H    2.5714107672304931E+02    1.8680585773887938E+02    3.2695771637437456E+00
O    3.6799072736833944E+02    1.7452851549488005E+02    1.9059450261931797E+01
H    3.6885456551660502E+02    1.7498518531907897E+02    1.9134801431111903E+01
H    3.6745597075408716E+02    1.7508317004295321E+02    1.8408551935897812E+01
O    2.5274120688621699E+02    2.7138124791597863E+02    8.5819779749254756E+00
H    2.5259933974744391E+02    2.7125253951253552E+02    7.6016864235964219E+00
H    2.5197746462655502E+02    2.7202915900545554E+02    8.8093827796033448E+00
O    2.7399979495317689E+02    2.2694625844937264E+02    1.2149640701302289E+01
H    2.7437468668004686E+02    2.2760278357132148E+02    1.2758551775570011E+01
H    2.7340024358905941E+02    2.2756202424445104E+02    1.1654926099418596E+01
O    2.5612199241778222E+02    1.8763471154331501E+02    7.9996528129982938E+00
H    2.5696419204737305E+02    1.8801679742477882E+02    7.6926077626352001E+00
H    2.5631936355264281E+02    1.8687917884776661E+02    8.5819339130435068E+00
O    3.1228255049740062E+02    1.2425653397603733E+02    1.9377454958899559E+01
H    3.1269617591328233E+02    1.2446615557968416E+02    2.0250684107189727E+01
H    3.1294148812964784E+02    1.2369741119794905E+02    1.8950544055212504E+01
O    1.8721085254322563E+02    3.0976236530628603E+02    1.2093532574274976E+01
H    1.8712119825614880E+02    3.1074057212169134E+02    1.2272168647737653E+01
H    1.8638102256566020E+02    3.0929368080574818E+02    1.2010637724301890E+01
O    3.9901790885221146E+02    2.3725328435364244E+02    1.6658125310211343E+01
H    3.9912562333119325E+02    2.3677891846160057E+02    1.5821740720299724E+01
H    3.9990669261299712E+02    2.3726462341530632E+02    1.7098274904041030E+01
O    2.5722109910595674E+02    2.2812660737492246E+02    5.7369324016061576E+00
H    2.5766824422891330E+02    2.2855234383931105E+02    6.5028418817718290E+00
H    2.5629046854583680E+02    2.2786167371599683E+02    5.9815061168088839E+00
O    2.1558035573062583E+02    1.4046775669733196E+02    3.8396595777989289E+00
H    2.1589166577846510E+02    1.3960580085652853E+02    3.4403759775817959E+00
H    2.1461094735310024E+02    1.4041135353672738E+02    3.7971984220193247E+00
O    2.6928945856762647E+02    1.9896953428685771E+02    4.0369322372517429E+00
H    2.6930683372500454E+02    1.9997536083237253E+02    3.8428720267405234E+00
H    2.6839115976036777E+02    1.9868166177599548E+02    4.2566862225500657E+00
O    3.6613555418334005E+02    1.0635209111521992E+02    1.9698026546801422E+01
H    3.6560391474645337E+02    1.0585584452528383E+02    2.0375915397479719E+01
H    3.6562265112722105E+02    1.0619720324694788E+02    1.8829396219147259E+01
O    2.6716894978365747E+02    3.2621131683677322E+02    1.2152257616610715E+01
H    2.6689906659666633E+02    3.2587859663530020E+02    1.1257436346069722E+01
H    2.6792063652947269E+02    3.2566566347999424E+02    1.2335183943108463E+01
O    2.7518802826994772E+02    2.4497093456882476E+02    1.4284142400129417E+01
H    2.7470602049890789E+02    2.4516791815787857E+02    1.5118222551181098E+01
H    2.7602561209493706E+02    2.4518055898248369E+02    1.4613869297945831E+01
O    3.0957676834780460E+02    2.1393123902619448E+02    1.5467170177155195E+01
H    3.0954967455274118E+02    2.1328160505617254E+02    1.6218701367075390E+01
H    3.1051156014043914E+02    2.1433137210933677E+02    1.5479743013822979E+01
O    2.3221181900238363E+02    2.4083393119706346E+02    1.7345873208648239E+01
H    2.3277090581472069E+02    2.4061041503694526E+02    1.6536221336002910E+01
H    2.3215100790950581E+02    2.4181261674401611E+02    1.7394851876529263E+01
O    2.5206221002639495E+02    1.9296775203021463E+02    3.0724096889485328E+00
H    2.5289879546487666E+02    1.9304097508196546E+02    2.5548733000057102E+00