 # Version information for this restart file 
 # current date 2020-04-19 00:22:01.663
 # current working dir /scratch/snx3000/gtocci/gtocci/MEMBRANES/AIMD_US_IONS_GRA/us_aimd_new/us_19
 # Program compiled at                              Fri Nov 22 15:19:42 CET 2019
 # Program compiled on                                                  daint102
 # Program compiled for                                   CRAY_XC50-gfortran_gpu
 # Source code revision number                                       git:a698b45
 &GLOBAL
   PRINT_LEVEL  LOW
   PROJECT_NAME GRAS
   RUN_TYPE  MD
   WALLTIME 86400
 &END GLOBAL
 &MOTION
   &MD
     ENSEMBLE  NVT
     STEPS  2000
     TIMESTEP     9.9999999999999989E-01
     STEP_START_VAL  76723
     TIME_START_VAL     7.6722999999935419E+04
     ECONS_START_VAL    -8.3018080414372507E+03
     TEMPERATURE     3.0000000000000000E+02
     TEMP_KIND  T
     &BAROSTAT
       PRESSURE     1.0000000000000000E+00
       TIMECON     9.9999999999999986E+01
       VIRIAL  Z
     &END BAROSTAT
     &THERMOSTAT
       TYPE  NOSE
       REGION  GLOBAL
       &NOSE
         LENGTH  4
         TIMECON     9.9999999999999986E+01
         MTS  2
         &COORD
               3.1894071794862776E-02    1.1034457647329358E+01   -2.7567523318346048E+01    9.1185937320796064E+00
         &END COORD
         &VELOCITY
              -1.8504179043404851E-06    3.0113045327501446E-04    1.2352869656608639E-04    1.9356101860086548E-04
         &END VELOCITY
         &MASS
               7.0145132684705392E+07    1.6237299232570693E+04    1.6237299232570693E+04    1.6237299232570693E+04
         &END MASS
         &FORCE
               1.8678702515660278E-10   -4.3718133312664512E-08    3.2169536039510600E-08   -4.3250674974788826E-08
         &END FORCE
       &END NOSE
     &END THERMOSTAT
     &AVERAGES  T
       &RESTART_AVERAGES
         ITIMES_START  1
         AVECPU     3.0738151427893975E+01
         AVEHUGONIOT     0.0000000000000000E+00
         AVETEMP_BARO     0.0000000000000000E+00
         AVEPOT    -8.3066992999276408E+03
         AVEKIN     2.0525986342256841E+00
         AVETEMP     3.0006159955847448E+02
         AVEKIN_QM     0.0000000000000000E+00
         AVETEMP_QM     0.0000000000000000E+00
         AVEVOL     2.1331414786626332E+05
         AVECELL_A     4.8437460238121709E+01
         AVECELL_B     4.6608961231948342E+01
         AVECELL_C     9.4486306644281314E+01
         AVEALPHA     9.0000000000000043E+01
         AVEBETA     9.0000000000000043E+01
         AVEGAMMA     9.0000000000000043E+01
         AVE_ECONS    -5.6119277110333314E+02
         AVE_PRESS     0.0000000000000000E+00
         AVE_PXX     0.0000000000000000E+00
       &END RESTART_AVERAGES
     &END AVERAGES
     &PRINT
       &TEMP_KIND  SILENT
       &END TEMP_KIND
     &END PRINT
   &END MD
   &FREE_ENERGY
     &METADYN
       MIN_DISP    -1.0000000000000000E+00
       OLD_HILL_NUMBER  0
       OLD_HILL_STEP  0
       DO_HILLS  F
       STEP_START_VAL  76723
       NHILLS_START_VAL  0
       &METAVAR
         SCALE     1.0000000000000000E+00
         COLVAR  1
       &END METAVAR
       &PRINT
         &COLVAR  SILENT
           COMMON_ITERATION_LEVELS  3
           &EACH
             MD  1
           &END EACH
         &END COLVAR
       &END PRINT
     &END METADYN
   &END FREE_ENERGY
   &CONSTRAINT
     &COLLECTIVE
       COLVAR  1
       INTERMOLECULAR  T
       &RESTRAINT
         K     4.4625385281452931E-04
       &END RESTRAINT
     &END COLLECTIVE
     &COLVAR_RESTART
           1.7952398262413613E+01
     &END COLVAR_RESTART
   &END CONSTRAINT
   &PRINT
     &TRAJECTORY  SILENT
       &EACH
         MD  1
       &END EACH
     &END TRAJECTORY
     &VELOCITIES  SILENT
       &EACH
         MD  1
       &END EACH
     &END VELOCITIES
     &FORCES  SILENT
       UNIT eV*angstrom^-1
       &EACH
         MD  1
       &END EACH
     &END FORCES
     &RESTART  SILENT
       &EACH
         MD  1
       &END EACH
     &END RESTART
     &RESTART_HISTORY  SILENT
       &EACH
         MD  100
       &END EACH
     &END RESTART_HISTORY
   &END PRINT
 &END MOTION
 &FORCE_EVAL
   METHOD  QS
   &DFT
     BASIS_SET_FILE_NAME /users/gtocci/scratch_daint_3000/data_cp2k//BASIS_MOLOPT
     POTENTIAL_FILE_NAME /users/gtocci/scratch_daint_3000/data_cp2k//GTH_POTENTIALS
     WFN_RESTART_FILE_NAME ./GRAS-RESTART.wfn
     CHARGE  -1
     &SCF
       MAX_SCF  10
       EPS_SCF     9.9999999999999995E-07
       SCF_GUESS  RESTART
       &OT  T
         MINIMIZER  DIIS
         PRECONDITIONER  FULL_KINETIC
       &END OT
       &OUTER_SCF  T
         EPS_SCF     9.9999999999999995E-07
         MAX_SCF  30
       &END OUTER_SCF
       &PRINT
         &RESTART  SILENT
           ADD_LAST  NUMERIC
           &EACH
             QS_SCF  50
           &END EACH
         &END RESTART
       &END PRINT
     &END SCF
     &QS
       MAP_CONSISTENT  T
       EXTRAPOLATION  ASPC
       EXTRAPOLATION_ORDER  4
     &END QS
     &MGRID
       NGRIDS  5
       CUTOFF     4.6000000000000000E+02
     &END MGRID
     &XC
       DENSITY_CUTOFF     1.0000000000000000E-10
       GRADIENT_CUTOFF     1.0000000000000000E-10
       TAU_CUTOFF     1.0000000000000000E-10
       &XC_GRID
         XC_DERIV  SPLINE2_SMOOTH
       &END XC_GRID
       &XC_FUNCTIONAL  NO_SHORTCUT
         &LIBXC  T
           FUNCTIONAL XC_GGA_X_OPTB88_VDW
         &END LIBXC
         &VWN  T
         &END VWN
       &END XC_FUNCTIONAL
       &VDW_POTENTIAL
         POTENTIAL_TYPE  NON_LOCAL
         &NON_LOCAL
           TYPE  DRSLL
           VERBOSE_OUTPUT  T
           KERNEL_FILE_NAME /users/gtocci/scratch_daint_3000/data_cp2k//vdW_kernel_table.dat
         &END NON_LOCAL
       &END VDW_POTENTIAL
     &END XC
     &REAL_TIME_PROPAGATION
       INITIAL_WFN  SCF_WFN
     &END REAL_TIME_PROPAGATION
     &PRINT
       &MULLIKEN  SILENT
         FILENAME =GRAS.mulliken
       &END MULLIKEN
     &END PRINT
   &END DFT
   &SUBSYS
     &CELL
       A     2.5632000000000001E+01    0.0000000000000000E+00    0.0000000000000000E+00
       B     0.0000000000000000E+00    2.4664400000000022E+01    0.0000000000000000E+00
       C     0.0000000000000000E+00    0.0000000000000000E+00    5.0000000000000028E+01
       MULTIPLE_UNIT_CELL  1 1 1
     &END CELL
     &COORD
C    6.3856227119620694E+00    6.3974144281818566E+00    3.8527576558262115E+00
C    7.8233542474562423E+00    6.4085006969849871E+00    3.7980979558271026E+00
C    8.5284274224286083E+00    7.6688785793422980E+00    3.8228224757411815E+00
C    9.9338999900040506E+00    7.6014437738449683E+00    3.8059570410443846E+00
C    6.3769373271720529E+00    8.8669288404402806E+00    3.9027253574950120E+00
C    7.8196245500247397E+00    8.9215323790005190E+00    3.9210573090702843E+00
C    8.4530169027494875E+00    1.0165549988595751E+01    3.8205913955787913E+00
C    9.8905763578600485E+00    1.0163887963968815E+01    3.7639185914879172E+00
C    6.2800661479351456E+00    1.1353808452532165E+01    3.7466468183564556E+00
C    7.7466890480234998E+00    1.1425294662203033E+01    3.7906904130081527E+00
C    8.4656630657931142E+00    1.2644186929031525E+01    3.7363148730399969E+00
C    9.9216873903072802E+00    1.2671138417715307E+01    3.8633313864875598E+00
C    6.3111360918113935E+00    1.3782176798114927E+01    3.8406509050928430E+00
C    7.7291046494303179E+00    1.3861389714788658E+01    3.8115225519035008E+00
C    8.4453510235434308E+00    1.5085573368523464E+01    3.9597828607755416E+00
C    9.9029380615010894E+00    1.5078897058529494E+01    4.0526728868600994E+00
C    6.3182565686002716E+00    1.6343082938470683E+01    4.0263757851086304E+00
C    7.7727989545115701E+00    1.6314406631785214E+01    4.0799533060050086E+00
C    8.5660986738919220E+00    5.1425309033409521E+00    3.8172321476759881E+00
C    9.9934664049557167E+00    5.1691614650369067E+00    3.8670054764895450E+00
C    1.0675920738301583E+01    6.4002779463677593E+00    3.8067605544473895E+00
C    1.2067625934111518E+01    6.3779719654466032E+00    3.6975870107690003E+00
C    1.2751637823527693E+01    7.6487960418023020E+00    3.7433364127302431E+00
C    1.4134370925062065E+01    7.6132531327646573E+00    3.6871406910057871E+00
C    1.0620234452440233E+01    8.8768686400074426E+00    3.8592386598260151E+00
C    1.2064659090230442E+01    8.8650203834865504E+00    3.8148298801647034E+00
C    1.2752149734552130E+01    1.0050942032890761E+01    3.8310931940119759E+00
C    1.4170462574418556E+01    1.0101744602124663E+01    3.7999628775011449E+00
C    1.0640813611252149E+01    1.1418484062194379E+01    3.8026080879241562E+00
C    1.2087354888167612E+01    1.1348607210281862E+01    3.8877212470892819E+00
C    1.2759007686542951E+01    1.2582904319288028E+01    3.9899093596874700E+00
C    1.4203443212364492E+01    1.2594196040019215E+01    3.7912415654656972E+00
C    1.0645487702630064E+01    1.3862897925601597E+01    3.9955674848228275E+00
C    1.2060268180035321E+01    1.3842438944476967E+01    4.0398631331024975E+00
C    1.2812677364586387E+01    1.5032820292994773E+01    3.9572313269401622E+00
C    1.4231842705190166E+01    1.5033139474641350E+01    3.9649536420518072E+00
C    1.0635420843993865E+01    1.6266746118043852E+01    4.0556316274177959E+00
C    1.2069285240996265E+01    1.6268600604617991E+01    3.9450585156489626E+00
C    1.2787998368619942E+01    5.1229215718568017E+00    3.6191757324258318E+00
C    1.4166255976927614E+01    5.1064605373015777E+00    3.5355133482024268E+00
C    1.4833411109528258E+01    6.3994309864486256E+00    3.5626160018158539E+00
C    1.6254777339967475E+01    6.4279106933973482E+00    3.6497871641330621E+00
C    1.6967337902166573E+01    7.6782331781882593E+00    3.7339650591626987E+00
C    1.8422411991497526E+01    7.6749592404373370E+00    3.6877913672761942E+00
C    1.4886344308689768E+01    8.8726825569748016E+00    3.7360926202319913E+00
C    1.6278588176959207E+01    8.8724119330645692E+00    3.7465194270877769E+00
C    1.7049897911967680E+01    1.0081585853485167E+01    3.6765821786507331E+00
C    1.8458209747151358E+01    1.0133204131138276E+01    3.6667623318097293E+00
C    1.4912663522145030E+01    1.1384220349107148E+01    3.6205099576981290E+00
C    1.6303031026263266E+01    1.1348280424705070E+01    3.6108339451369083E+00
C    1.7019802453277947E+01    1.2577052674541633E+01    3.5882130226932647E+00
C    1.8498322224271831E+01    1.2617389919737681E+01    3.5708271162365208E+00
C    1.4968687730441602E+01    1.3815919067397180E+01    3.7732644688342187E+00
C    1.6364162120954663E+01    1.3817815763453382E+01    3.6890573358632808E+00
C    1.7089646291362477E+01    1.5057694617446540E+01    3.6556702617742878E+00
C    1.8464652209875648E+01    1.5062252072044707E+01    3.6374040346756513E+00
C    1.4935519439550099E+01    1.6256030323782952E+01    3.8770760098429231E+00
C    1.6363143870494362E+01    1.6278804436898632E+01    3.7540858135702679E+00
C    1.7005159820238166E+01    5.2388830434770810E+00    3.6323186504187901E+00
C    1.8456845850956764E+01    5.2313200433163578E+00    3.5523116443129834E+00
C    6.3558093195954708E+00    1.8740843276230649E+01    4.2597653919494523E+00
C    7.7830937995758029E+00    1.8808888684299802E+01    4.1883933386471055E+00
C    8.4861197334049088E+00    2.0024386866409614E+01    4.2028791544322184E+00
C    9.9523821506458248E+00    1.9927817211062251E+01    4.1018168485839217E+00
C    6.3356466663760571E+00    2.1223292974345991E+01    4.2520603800523364E+00
C    7.7511537535436297E+00    2.1257825094226973E+01    4.2821102795243444E+00
C    8.4793501489602612E+00    2.2441139620316971E+01    4.2185362551853611E+00
C    9.9286018586062443E+00    2.2433969801906208E+01    4.1446771520888497E+00
C    6.3702809226896573E+00    2.3698013938730742E+01    4.1734151838188849E+00
C    7.7777478605825046E+00    2.3685813550043822E+01    4.1309452711854728E+00
C    8.4416372409486815E+00    2.4963947855014446E+01    4.0951981038599001E+00
C    9.9202239605043108E+00    2.4962204353846733E+01    4.0602501904427255E+00
C    6.3049212867282085E+00    2.6174863732450984E+01    3.9625108123225727E+00
C    7.7349467059411730E+00    2.6130749055881289E+01    3.9770698712987902E+00
C    8.5041635383537297E+00    2.7358046545339899E+01    3.9584848990246653E+00
C    9.9600049100382506E+00    2.7355267729026835E+01    3.8901982993187048E+00
C    6.4200480044866142E+00    2.8614829466110915E+01    3.7690660509147809E+00
C    7.8212035040700201E+00    2.8628586798740660E+01    3.8360386139773808E+00
C    8.4719256295794221E+00    1.7562029397637541E+01    4.1723714297256871E+00
C    9.8961408619705189E+00    1.7502800395228576E+01    4.1198216566774768E+00
C    1.0658299393118282E+01    1.8706246287623898E+01    4.0626371192119342E+00
C    1.2085464888696629E+01    1.8661199083217912E+01    3.9540114052806903E+00
C    1.2778598758167062E+01    1.9906390663376701E+01    3.9644700419273717E+00
C    1.4190237276181033E+01    1.9927186358931412E+01    3.7517705433556343E+00
C    1.0615069042386173E+01    2.1177595596398998E+01    4.0911071883566068E+00
C    1.2066010335942680E+01    2.1164507613756768E+01    4.0749767736259219E+00
C    1.2772578880242959E+01    2.2453896731143377E+01    3.9474655440341992E+00
C    1.4145987350424342E+01    2.2426244406164002E+01    3.7547567222511100E+00
C    1.0657063590119304E+01    2.3700773846932520E+01    4.1343499485656530E+00
C    1.2088468054705581E+01    2.3720112448935932E+01    3.9995937938031529E+00
C    1.2827553346635606E+01    2.4906633336575979E+01    3.8730726413580205E+00
C    1.4224529497794174E+01    2.4915144368937430E+01    3.8941440472229907E+00
C    1.0696386193385811E+01    2.6124272980856308E+01    3.9627190669389520E+00
C    1.2098566004529342E+01    2.6122893266212699E+01    3.8111723200579841E+00
C    1.2764750495186844E+01    2.7340628196886549E+01    3.6739199664065865E+00
C    1.4192011261110023E+01    2.7338838521655166E+01    3.7008293892661186E+00
C    1.0654584771870976E+01    2.8599051256586733E+01    3.8532351911660250E+00
C    1.2062627226447990E+01    2.8595657733667249E+01    3.8056189586208768E+00
C    1.2833113567753854E+01    1.7439126738948243E+01    3.9356687774120682E+00
C    1.4219749524526021E+01    1.7460297402756524E+01    3.8573905469935315E+00
C    1.4926899621246060E+01    1.8695416552404438E+01    3.8284743922859725E+00
C    1.6345029430263747E+01    1.8760893785176798E+01    3.6651186815694139E+00
C    1.7013431343249525E+01    2.0030664964308983E+01    3.5971253130015888E+00
C    1.8452223917298898E+01    2.0090615136951921E+01    3.7003952851155071E+00
C    1.4850174956774493E+01    2.1176673774760552E+01    3.6701310427750995E+00
C    1.6313375930755395E+01    2.1254837609626275E+01    3.7064311816939348E+00
C    1.6998034693746359E+01    2.2458113286517182E+01    3.8300674776700259E+00
C    1.8474440889194980E+01    2.2509984617971224E+01    3.8525823330664406E+00
C    1.4874737846642924E+01    2.3643066054075664E+01    3.7970859221035904E+00
C    1.6287759953367459E+01    2.3670043717811161E+01    3.9068217140916119E+00
C    1.7029278307129850E+01    2.4947274572264675E+01    3.8704882192865950E+00
C    1.8471451771190420E+01    2.4988272927641422E+01    3.8313061205356340E+00
C    1.4916563803197393E+01    2.6113896384985953E+01    3.7174878279010479E+00
C    1.6316727733507427E+01    2.6143348511426357E+01    3.7166675281555173E+00
C    1.7034034800441113E+01    2.7390483959234533E+01    3.7108053077105785E+00
C    1.8447954106285525E+01    2.7448140003605172E+01    3.5616777203869416E+00
C    1.4896920443495558E+01    2.8568444650006189E+01    3.6082559035367572E+00
C    1.6328809990835591E+01    2.8599803145275594E+01    3.5800878506670690E+00
C    1.7070059945286587E+01    1.7534303042831240E+01    3.6904510899461198E+00
C    1.8467612170803655E+01    1.7544749265157435E+01    3.6866744686519075E+00
C    1.9173688970668959E+01    6.4871059532504125E+00    3.5789412771193003E+00
C    2.0580466947653754E+01    6.4723435425427436E+00    3.5411850623817793E+00
C    2.1324610831246883E+01    7.6737878279405045E+00    3.5823075531498421E+00
C    2.2775199738721113E+01    7.6823126703386997E+00    3.4590005571784261E+00
C    1.9192617710843223E+01    8.8881757387850762E+00    3.6659459026639398E+00
C    2.0643616193927695E+01    8.9013076415693764E+00    3.6498303222162831E+00
C    2.1296659267598510E+01    1.0154746013803139E+01    3.7376144231578361E+00
C    2.2740287870171365E+01    1.0132264455116145E+01    3.6212668223346909E+00
C    1.9155392151855612E+01    1.1370667558536550E+01    3.5907093999022117E+00
C    2.0552828477894273E+01    1.1369931930054788E+01    3.5726822110196377E+00
C    2.1285442755414735E+01    1.2599077711002657E+01    3.5685049226629491E+00
C    2.2686871933597050E+01    1.2619748328784961E+01    3.5400922927964307E+00
C    1.9193788781729314E+01    1.3853390516270078E+01    3.5622347563352812E+00
C    2.0626781451811098E+01    1.3835456436813326E+01    3.5570439238407259E+00
C    2.1338443215670232E+01    1.5088857401045328E+01    3.6338925332885963E+00
C    2.2755172283428358E+01    1.5093843243168376E+01    3.7115853249310602E+00
C    1.9167171745011554E+01    1.6308361637094155E+01    3.6363030555987383E+00
C    2.0618660991694401E+01    1.6328325928219641E+01    3.5929465692512013E+00
C    2.1275557122479423E+01    5.2260476859988065E+00    3.4784713478392160E+00
C    2.2687576423370185E+01    5.2471679469634394E+00    3.4507457466824207E+00
C    2.3442528340034521E+01    6.4508969767964564E+00    3.5030531013440243E+00
C    2.4878711496343900E+01    6.3722951689289316E+00    3.5501520935935433E+00
C    2.5566349811126894E+01    7.6171427277966846E+00    3.6491426301640155E+00
C    2.6982866353622761E+01    7.6653334878617301E+00    3.6331610299014532E+00
C    2.3490056114726524E+01    8.9325900173965849E+00    3.4624381004032392E+00
C    2.4883025192496692E+01    8.8664869893829703E+00    3.5797599122584742E+00
C    2.5553974040538062E+01    1.0128038064889218E+01    3.5942456769258779E+00
C    2.6993479693752437E+01    1.0137159837641136E+01    3.6716625588589529E+00
C    2.3403986156784821E+01    1.1358258133409597E+01    3.5927322830347634E+00
C    2.4840683754436416E+01    1.1328505059997617E+01    3.5670478666078984E+00
C    2.5520142207943820E+01    1.2618646729244768E+01    3.7375146339017813E+00
C    2.6966119708655409E+01    1.2598838125777254E+01    3.6575406798745380E+00
C    2.3428254305651723E+01    1.3822280580082884E+01    3.5875349470715099E+00
C    2.4836430972884063E+01    1.3849460741487578E+01    3.6978851118568135E+00
C    2.5570917683262337E+01    1.5068914772136667E+01    3.7837989258692444E+00
C    2.7010949146343194E+01    1.5078957359717000E+01    3.8878813665045704E+00
C    2.3418073527361127E+01    1.6337940809989792E+01    3.7397059612960590E+00
C    2.4829278222833356E+01    1.6288214059106235E+01    3.7596784456867010E+00
C    2.5539084405727820E+01    5.1614499009883774E+00    3.5223666552222395E+00
C    2.6970544459883694E+01    5.1717702007076491E+00    3.5936338413999365E+00
C    2.7698542934204937E+01    6.3715839285997395E+00    3.5574633045012760E+00
C    2.9136269671347623E+01    6.4023408469790528E+00    3.6929866135202070E+00
C    2.9837395460717389E+01    7.6707734960565954E+00    3.7251539099333808E+00
C    3.1286134087948646E+01    7.6777309800526767E+00    3.8296991784930943E+00
C    2.7724454253046456E+01    8.9120192638378111E+00    3.6700170008067796E+00
C    2.9135598872373517E+01    8.9182513300451038E+00    3.7710969733043891E+00
C    2.9834312983403287E+01    1.0142013233954065E+01    3.8244868587821141E+00
C    3.1248833931318295E+01    1.0132631618635129E+01    3.8623572652155223E+00
C    2.7683412287088242E+01    1.1381382680311061E+01    3.6092386174617217E+00
C    2.9145019914174433E+01    1.1367295904451543E+01    3.7333057375672185E+00
C    2.9777288075223773E+01    1.2626074230308987E+01    3.8521775887368284E+00
C    3.1191895754857001E+01    1.2596773908687997E+01    3.8053817152894056E+00
C    2.7723784942834271E+01    1.3808900474519763E+01    3.8718670883011042E+00
C    2.9097769893211662E+01    1.3863428664820967E+01    3.7778064992183342E+00
C    2.9862379883689549E+01    1.5059631428782957E+01    3.9008268645802566E+00
C    3.1256256575282912E+01    1.5076164422810340E+01    3.9549543089630346E+00
C    2.7730117819742265E+01    1.6303790037789760E+01    3.9373343068693414E+00
C    2.9159515338924322E+01    1.6323856882246012E+01    3.9955347971381205E+00
C    2.9848182462297441E+01    5.1996551660620050E+00    3.6954780861712995E+00
C    3.1273368853261466E+01    5.1625621316916614E+00    3.8209578322838103E+00
C    1.9162780253603025E+01    1.8846950462396411E+01    3.6901177641569283E+00
C    2.0596963119176870E+01    1.8849024632394467E+01    3.7975128379713308E+00
C    2.1306723158743992E+01    2.0078280431121751E+01    3.9206327346212633E+00
C    2.2683148036757984E+01    2.0037270217534331E+01    4.0116252712170342E+00
C    1.9190575977924730E+01    2.1286839245836866E+01    3.8238445977847277E+00
C    2.0605276543242073E+01    2.1330621332035410E+01    3.8619358912292672E+00
C    2.1318393946247433E+01    2.2515901718156936E+01    3.8861755867785837E+00
C    2.2713129517355174E+01    2.2502576762413383E+01    4.0993001374128397E+00
C    1.9187525490871582E+01    2.3739033974362098E+01    3.7880599274659050E+00
C    2.0609781678007838E+01    2.3727213443013483E+01    3.8441736337020882E+00
C    2.1318431571968155E+01    2.4941474326563426E+01    3.7323516913083448E+00
C    2.2757323530325863E+01    2.4973211232332222E+01    3.7724349336509961E+00
C    1.9131281947327562E+01    2.6255795840596143E+01    3.7126086193256294E+00
C    2.0583912995196130E+01    2.6183433693155827E+01    3.6943321680670187E+00
C    2.1266519154088598E+01    2.7413583004714450E+01    3.6642711153239222E+00
C    2.2698163177535349E+01    2.7428025311651339E+01    3.5800646360155053E+00
C    1.9154764628077359E+01    2.8693689841920367E+01    3.6030795652759919E+00
C    2.0557046099346636E+01    2.8676346390344673E+01    3.5922303851973072E+00
C    2.1303853092333110E+01    1.7568341293650782E+01    3.8264916434568121E+00
C    2.2718503980714040E+01    1.7581806725754493E+01    3.8646444807765987E+00
C    2.3378188752983121E+01    1.8802542346672574E+01    3.9747922858574305E+00
C    2.4833541693466845E+01    1.8769991698239380E+01    3.9758587519077322E+00
C    2.5543413370178683E+01    2.0053850816024145E+01    4.0367500698961418E+00
C    2.6970601244190174E+01    2.0056926786914570E+01    4.0173931231527726E+00
C    2.3406355067707608E+01    2.1238150892701675E+01    4.0525023822994353E+00
C    2.4822996875865961E+01    2.1300066083052339E+01    4.1128920861856919E+00
C    2.5574928274823300E+01    2.2492570661489637E+01    4.1506154203473899E+00
C    2.7003787575737686E+01    2.2497423279226162E+01    4.0924026446917301E+00
C    2.3445155452188938E+01    2.3739504157302186E+01    3.9319310858282437E+00
C    2.4896541040175244E+01    2.3712624875549842E+01    4.0436840364121514E+00
C    2.5561856074325298E+01    2.4943722452939525E+01    3.8331994944718915E+00
C    2.7027046504790519E+01    2.4900802521235242E+01    3.7558405332675067E+00
C    2.3450745277161850E+01    2.6201194976020858E+01    3.7174408621003647E+00
C    2.4870431372176739E+01    2.6148814845517244E+01    3.6646735469737530E+00
C    2.5552132999273798E+01    2.7354398581924620E+01    3.5679885226464241E+00
C    2.7003912379080546E+01    2.7385632260458152E+01    3.6581259045089682E+00
C    2.3432419123765634E+01    2.8629128834882387E+01    3.3900521017521301E+00
C    2.4851988001725942E+01    2.8587474353894628E+01    3.4328054153088923E+00
C    2.5559470473468501E+01    1.7511456803718787E+01    3.9610678365564982E+00
C    2.6979247936822347E+01    1.7551912754532090E+01    3.9586856379189914E+00
C    2.7694396111238976E+01    1.8829988956001834E+01    3.9849966580535319E+00
C    2.9083885028558946E+01    1.8792961245768389E+01    4.0208592840017614E+00
C    2.9837757320948825E+01    1.9999082576132061E+01    4.1021011314850480E+00
C    3.1287184374953682E+01    2.0017565449717168E+01    4.1716092337420285E+00
C    2.7707725434481826E+01    2.1270517734843803E+01    4.0592722318202119E+00
C    2.9119813748884454E+01    2.1268928516989913E+01    4.0965138760032422E+00
C    2.9866523728772240E+01    2.2490693906714910E+01    4.1335380728370845E+00
C    3.1278261247761098E+01    2.2500246177632178E+01    4.2240974944054512E+00
C    2.7679456387157632E+01    2.3693204132327875E+01    4.0612914595410459E+00
C    2.9106480672819135E+01    2.3685117300558943E+01    4.1279902673614126E+00
C    2.9827479387932090E+01    2.4897964085446706E+01    3.9479588965519685E+00
C    3.1247810559318147E+01    2.4917229786241748E+01    4.0138801097019918E+00
C    2.7711842587211692E+01    2.6142765633228532E+01    3.7487858692402773E+00
C    2.9131746416486440E+01    2.6124423480243109E+01    3.8855539737738098E+00
C    2.9784187875289149E+01    2.7359693808768082E+01    3.7701606318081065E+00
C    3.1266377386315103E+01    2.7373163172700949E+01    3.8112534804823137E+00
C    2.7710114304780344E+01    2.8628282513379649E+01    3.5936860928213421E+00
C    2.9115134528215979E+01    2.8614546852243553E+01    3.6045452857539120E+00
C    2.9797304470348816E+01    1.7550079447525782E+01    4.1191280394897340E+00
C    3.1240172346304956E+01    1.7539933347223720E+01    4.2033944728180908E+00
O    3.6126705665056789E+02    8.2240414737632435E+01    7.3172177641417493E+00
H    3.6222181221459408E+02    8.2554944523988894E+01    7.3091234659968176E+00
H    3.6127529378674404E+02    8.1328286389911511E+01    6.9906705684285262E+00
O    3.6416976987070888E+02    3.6508977420157201E+01    1.3867941524368895E+01
H    3.6319565449955917E+02    3.6728943341157198E+01    1.3985934144823704E+01
H    3.6465556308554500E+02    3.7160813666556400E+01    1.4342723558354418E+01
O    2.1427259333088955E+02    1.6976077175549318E+02    7.6470138435128749E+00
H    2.1399374519071276E+02    1.7065980712925790E+02    7.3687720554500666E+00
H    2.1382079531325363E+02    1.6974195338258875E+02    8.5063503336495820E+00
O    3.5343422152075203E+02    6.6912717980066446E+01    6.9654281471444355E+00
H    3.5443570440615389E+02    6.6872679691298231E+01    7.2251406409807126E+00
H    3.5324487139110653E+02    6.7783364911321783E+01    6.6047121240104900E+00
O    2.6669718057136112E+02    1.4139711276915892E+02    7.2217577971309881E+00
H    2.6739551325584944E+02    1.4207928464806093E+02    7.2743154382539190E+00
H    2.6725528399603900E+02    1.4061303135559592E+02    7.0363954053939928E+00
O    2.9862838286442229E+02    4.9116794990757349E+01    7.1981396085663523E+00
H    2.9826358805112721E+02    4.8655434105865908E+01    7.9820904859574648E+00
H    2.9941069551242902E+02    4.8548533446174616E+01    6.8908176758705917E+00
O    3.2076353364294249E+02    1.5300755498728384E+02    9.8505813597852381E+00
H    3.2120856190897996E+02    1.5213134370281946E+02    1.0083174399601727E+01
H    3.2146258600887887E+02    1.5357917211782865E+02    9.5137409838758416E+00
O    3.9070157975038222E+02    4.3666468154736954E+01    1.9454543497924320E+01
H    3.9115253219429633E+02    4.4132934415929235E+01    2.0194579427018049E+01
H    3.9019481819733949E+02    4.4390655651972196E+01    1.9091602449067921E+01
O    2.2400942248722856E+02    1.2373971751391238E+02    1.0727966051395336E+01
H    2.2395105968922667E+02    1.2433597432685694E+02    9.9090253656049399E+00
H    2.2388780855557826E+02    1.2276531917860460E+02    1.0489943554481194E+01
O    4.3645320212717212E+02    1.2196580389327789E+02    1.7226556471423883E+01
H    4.3665586563582036E+02    1.2289595115150470E+02    1.7672381836410814E+01
H    4.3626134867283270E+02    1.2144078213156438E+02    1.8032044655558806E+01
O    2.9151868985244272E+02    9.6720287168268683E+01    2.3613698219252868E+01
H    2.9118887878459066E+02    9.5858563575183709E+01    2.4020818352898793E+01
H    2.9088721008662912E+02    9.7033702694233114E+01    2.2946919971381025E+01
O    2.9063971353748570E+02    1.1176440588666536E+02    1.6533720821852732E+01
H    2.9007255073318862E+02    1.1211529335300762E+02    1.5832809718570482E+01
H    2.9144352449062006E+02    1.1124785288761767E+02    1.6147022135287003E+01
O    3.1321872036673187E+02   -2.6214115927479519E+01    1.4451561151579998E+01
H    3.1258489432455207E+02   -2.5607821501880768E+01    1.3946524412736448E+01
H    3.1372581190392049E+02   -2.5514910014426516E+01    1.4974765168322079E+01
O    3.7774084676609158E+02   -4.6070222612823697E+00    6.8211647956275367E+00
H    3.7673748819502748E+02   -4.6060573934508486E+00    6.8148731011265173E+00
H    3.7796714960410173E+02   -3.6932612469723232E+00    6.5773508280133282E+00
O    2.1044035241606116E+02    2.3287063365878592E+02    2.0612065181021602E+01
H    2.1082494428606833E+02    2.3314134962208561E+02    1.9775694315069948E+01
H    2.0974810039353201E+02    2.3359966806607622E+02    2.0783358975525864E+01
O    3.8422525424555306E+02    1.3326716151021225E+02    1.7034734196846614E+01
H    3.8372033497563945E+02    1.3249635945427215E+02    1.6704498176858745E+01
H    3.8420942773210805E+02    1.3307442461332539E+02    1.8067302970280519E+01
O    3.0496370897695800E+02    1.7331774643820538E+02    1.7922818309548251E+01
H    3.0539908112743268E+02    1.7365354937053274E+02    1.8734213627727929E+01
H    3.0546641505339420E+02    1.7356953486951073E+02    1.7089796291809133E+01
O    3.6113110338450019E+02    1.3427842777708892E+02    1.7090654963802496E+01
H    3.6187624569610284E+02    1.3479500073295227E+02    1.6711914263181871E+01
H    3.6053964960803967E+02    1.3405299757006895E+02    1.6352668796221476E+01
O    2.3742832729237202E+02    6.8722456497945842E+01    7.1492784548049269E+00
H    2.3683875410941977E+02    6.9470994744175627E+01    7.2674601299164632E+00