 # Version information for this restart file 
 # current date 2020-04-18 23:05:40.886
 # current working dir /scratch/snx3000/gtocci/gtocci/MEMBRANES/AIMD_US_IONS_GRA/us_aimd_new/us_7
 # Program compiled at                              Fri Nov 22 15:19:42 CET 2019
 # Program compiled on                                                  daint102
 # Program compiled for                                   CRAY_XC50-gfortran_gpu
 # Source code revision number                                       git:a698b45
 &GLOBAL
   PRINT_LEVEL  LOW
   PROJECT_NAME GRAS
   RUN_TYPE  MD
   WALLTIME 86400
 &END GLOBAL
 &MOTION
   &MD
     ENSEMBLE  NVT
     STEPS  2000
     TIMESTEP     9.9999999999999989E-01
     STEP_START_VAL  73975
     TIME_START_VAL     7.3974999999939610E+04
     ECONS_START_VAL    -8.3020047145287517E+03
     TEMPERATURE     3.0000000000000000E+02
     TEMP_KIND  T
     &BAROSTAT
       PRESSURE     1.0000000000000000E+00
       TIMECON     9.9999999999999986E+01
       VIRIAL  Z
     &END BAROSTAT
     &THERMOSTAT
       TYPE  NOSE
       REGION  GLOBAL
       &NOSE
         LENGTH  4
         TIMECON     9.9999999999999986E+01
         MTS  2
         &COORD
               1.7711915069853749E-02    1.6688810909949410E+01   -5.9154358418853576E+01    2.5754573788522503E+01
         &END COORD
         &VELOCITY
              -9.5213862009047990E-08    2.2163749419192269E-04    9.8994642422534922E-05    3.3493492976641371E-04
         &END VELOCITY
         &MASS
               7.0145132684705392E+07    1.6237299232570693E+04    1.6237299232570693E+04    1.6237299232570693E+04
         &END MASS
         &FORCE
              -1.4445131167628877E-09   -5.8470850114584380E-08   -9.3868350184305058E-09   -4.8710074621739522E-08
         &END FORCE
       &END NOSE
     &END THERMOSTAT
     &AVERAGES  T
       &RESTART_AVERAGES
         ITIMES_START  1
         AVECPU     3.0979915167078264E+01
         AVEHUGONIOT     0.0000000000000000E+00
         AVETEMP_BARO     0.0000000000000000E+00
         AVEPOT    -8.3067278053179289E+03
         AVEKIN     2.0528494379017594E+00
         AVETEMP     3.0009867567356815E+02
         AVEKIN_QM     0.0000000000000000E+00
         AVETEMP_QM     0.0000000000000000E+00
         AVEVOL     2.1331414786626332E+05
         AVECELL_A     4.8437460238121709E+01
         AVECELL_B     4.6608961231948342E+01
         AVECELL_C     9.4486306644281314E+01
         AVEALPHA     9.0000000000000028E+01
         AVEBETA     9.0000000000000028E+01
         AVEGAMMA     9.0000000000000028E+01
         AVE_ECONS    -5.4601336582568831E+02
         AVE_PRESS     0.0000000000000000E+00
         AVE_PXX     0.0000000000000000E+00
       &END RESTART_AVERAGES
     &END AVERAGES
     &PRINT
       &TEMP_KIND  SILENT
       &END TEMP_KIND
     &END PRINT
   &END MD
   &FREE_ENERGY
     &METADYN
       MIN_DISP    -1.0000000000000000E+00
       OLD_HILL_NUMBER  0
       OLD_HILL_STEP  0
       DO_HILLS  F
       STEP_START_VAL  73975
       NHILLS_START_VAL  0
       &METAVAR
         SCALE     1.0000000000000000E+00
         COLVAR  1
       &END METAVAR
       &PRINT
         &COLVAR  SILENT
           COMMON_ITERATION_LEVELS  3
           &EACH
             MD  1
           &END EACH
         &END COLVAR
       &END PRINT
     &END METADYN
   &END FREE_ENERGY
   &CONSTRAINT
     &COLLECTIVE
       COLVAR  1
       INTERMOLECULAR  T
       &RESTRAINT
         K     4.4625385281452931E-04
       &END RESTRAINT
     &END COLLECTIVE
     &COLVAR_RESTART
           6.6140414650997519E+00
     &END COLVAR_RESTART
   &END CONSTRAINT
   &PRINT
     &TRAJECTORY  SILENT
       &EACH
         MD  1
       &END EACH
     &END TRAJECTORY
     &VELOCITIES  SILENT
       &EACH
         MD  1
       &END EACH
     &END VELOCITIES
     &FORCES  SILENT
       UNIT eV*angstrom^-1
       &EACH
         MD  1
       &END EACH
     &END FORCES
     &RESTART  SILENT
       &EACH
         MD  1
       &END EACH
     &END RESTART
     &RESTART_HISTORY  SILENT
       &EACH
         MD  100
       &END EACH
     &END RESTART_HISTORY
   &END PRINT
 &END MOTION
 &FORCE_EVAL
   METHOD  QS
   &DFT
     BASIS_SET_FILE_NAME /users/gtocci/scratch_daint_3000/data_cp2k//BASIS_MOLOPT
     POTENTIAL_FILE_NAME /users/gtocci/scratch_daint_3000/data_cp2k//GTH_POTENTIALS
     WFN_RESTART_FILE_NAME ./GRAS-RESTART.wfn
     CHARGE  -1
     &SCF
       MAX_SCF  10
       EPS_SCF     9.9999999999999995E-07
       SCF_GUESS  RESTART
       &OT  T
         MINIMIZER  DIIS
         PRECONDITIONER  FULL_KINETIC
       &END OT
       &OUTER_SCF  T
         EPS_SCF     9.9999999999999995E-07
         MAX_SCF  30
       &END OUTER_SCF
       &PRINT
         &RESTART  SILENT
           ADD_LAST  NUMERIC
           &EACH
             QS_SCF  50
           &END EACH
         &END RESTART
       &END PRINT
     &END SCF
     &QS
       MAP_CONSISTENT  T
       EXTRAPOLATION  ASPC
       EXTRAPOLATION_ORDER  4
     &END QS
     &MGRID
       NGRIDS  5
       CUTOFF     4.6000000000000000E+02
     &END MGRID
     &XC
       DENSITY_CUTOFF     1.0000000000000000E-10
       GRADIENT_CUTOFF     1.0000000000000000E-10
       TAU_CUTOFF     1.0000000000000000E-10
       &XC_GRID
         XC_DERIV  SPLINE2_SMOOTH
       &END XC_GRID
       &XC_FUNCTIONAL  NO_SHORTCUT
         &LIBXC  T
           FUNCTIONAL XC_GGA_X_OPTB88_VDW
         &END LIBXC
         &VWN  T
         &END VWN
       &END XC_FUNCTIONAL
       &VDW_POTENTIAL
         POTENTIAL_TYPE  NON_LOCAL
         &NON_LOCAL
           TYPE  DRSLL
           VERBOSE_OUTPUT  T
           KERNEL_FILE_NAME /users/gtocci/scratch_daint_3000/data_cp2k//vdW_kernel_table.dat
         &END NON_LOCAL
       &END VDW_POTENTIAL
     &END XC
     &REAL_TIME_PROPAGATION
       INITIAL_WFN  SCF_WFN
     &END REAL_TIME_PROPAGATION
     &PRINT
       &MULLIKEN  SILENT
         FILENAME =GRAS.mulliken
       &END MULLIKEN
     &END PRINT
   &END DFT
   &SUBSYS
     &CELL
       A     2.5632000000000001E+01    0.0000000000000000E+00    0.0000000000000000E+00
       B     0.0000000000000000E+00    2.4664400000000022E+01    0.0000000000000000E+00
       C     0.0000000000000000E+00    0.0000000000000000E+00    5.0000000000000028E+01
       MULTIPLE_UNIT_CELL  1 1 1
     &END CELL
     &COORD
C    3.2666109096067575E+00   -1.2990242659649578E+01    1.2576818491704929E+01
C    4.7318095738638828E+00   -1.3027882243564763E+01    1.2409560354977952E+01
C    5.4365364476825073E+00   -1.1783253620169116E+01    1.2530606755934057E+01
C    6.8703880903685004E+00   -1.1745508504062654E+01    1.2404714010009197E+01
C    3.2909165485156220E+00   -1.0555558217418916E+01    1.2448926673933185E+01
C    4.7383932222814256E+00   -1.0560122284617451E+01    1.2535417266797452E+01
C    5.4383680770474161E+00   -9.2522666893266230E+00    1.2505290773353847E+01
C    6.8314598277212593E+00   -9.2607564030420306E+00    1.2511255569897124E+01
C    3.3032100310072603E+00   -8.0551786811349988E+00    1.2462879644393292E+01
C    4.7210583675249032E+00   -8.0158974417601652E+00    1.2515007066235198E+01
C    5.4060593751911545E+00   -6.7877915567529312E+00    1.2347926024446398E+01
C    6.8113060521834736E+00   -6.7777888827814454E+00    1.2452754362091801E+01
C    3.3006521726920388E+00   -5.5637087589625605E+00    1.2277753921130063E+01
C    4.6757191394933981E+00   -5.5602599576022405E+00    1.2351642049903116E+01
C    5.4397035111895127E+00   -4.3272322229362690E+00    1.2299535114107956E+01
C    6.8428352594336515E+00   -4.3390349181395598E+00    1.2306393729900609E+01
C    3.2919724370203158E+00   -3.0480647530325253E+00    1.2238411305056186E+01
C    4.7342819340009541E+00   -3.0791415368068424E+00    1.2273828812919204E+01
C    5.4640257186915839E+00   -1.4212763947911863E+01    1.2326013739443074E+01
C    6.9016208996839126E+00   -1.4166772268777846E+01    1.2262805943105715E+01
C    7.6095524070586604E+00   -1.2961490028174440E+01    1.2320462986390798E+01
C    9.0566421236144912E+00   -1.2921927780169124E+01    1.2280132618156156E+01
C    9.7343046589080000E+00   -1.1692863222049455E+01    1.2211194941652685E+01
C    1.1134679461585469E+01   -1.1748628212469823E+01    1.1993559922479060E+01
C    7.5284057537423905E+00   -1.0467093005322557E+01    1.2337614219915968E+01
C    8.9682323393890115E+00   -1.0486683691020540E+01    1.2229279262725367E+01
C    9.6710884848562984E+00   -9.2462465991062928E+00    1.2235720461579540E+01
C    1.1115599535749544E+01   -9.2714066946138765E+00    1.2169784786976136E+01
C    7.5337049714912787E+00   -7.9987210949487721E+00    1.2500345523375588E+01
C    8.9336954570990450E+00   -8.0190963362903105E+00    1.2293615749089904E+01
C    9.6919801432547317E+00   -6.8093732154762145E+00    1.2225610667402517E+01
C    1.1163576375087096E+01   -6.7875221324953801E+00    1.2198572784752287E+01
C    7.5500102323979217E+00   -5.5793389944724421E+00    1.2405868078513977E+01
C    8.9797280975166540E+00   -5.5950023772604647E+00    1.2299431753833622E+01
C    9.6686364687653121E+00   -4.3578982567450293E+00    1.2234504131147069E+01
C    1.1088454025228215E+01   -4.3544797048705490E+00    1.2182550602032716E+01
C    7.5496613542903717E+00   -3.0512172310689167E+00    1.2273008403404143E+01
C    8.9786954086624480E+00   -3.1157989130292836E+00    1.2211093952870840E+01
C    9.7179639973661498E+00   -1.4129569078596644E+01    1.2266042525399618E+01
C    1.1162032945425162E+01   -1.4139607315744922E+01    1.2130689324133135E+01
C    1.1883593713547425E+01   -1.2910515586907437E+01    1.1913291248765740E+01
C    1.3330557015649108E+01   -1.2985024365825824E+01    1.1960109550150440E+01
C    1.4005103101667149E+01   -1.1730743123571296E+01    1.2048175175124507E+01
C    1.5409466293624341E+01   -1.1732573090917988E+01    1.1994303870090949E+01
C    1.1841726833926320E+01   -1.0496332193408513E+01    1.2013558837104931E+01
C    1.3269322080948577E+01   -1.0514369677949416E+01    1.1981372041575304E+01
C    1.4012346410228478E+01   -9.3003978573747261E+00    1.1948935405577306E+01
C    1.5441168799123387E+01   -9.3050699224888973E+00    1.1972539796906554E+01
C    1.1875063344347915E+01   -8.0287137056200670E+00    1.2199402958197210E+01
C    1.3268064774705545E+01   -8.0995803170845821E+00    1.1993074400051047E+01
C    1.3941273425070948E+01   -6.8555677067833134E+00    1.2029777087795196E+01
C    1.5409248136281610E+01   -6.8702275522461616E+00    1.2077105886240266E+01
C    1.1847424950500168E+01   -5.5611623590631645E+00    1.2177047464498836E+01
C    1.3293842101476626E+01   -5.5671009159185836E+00    1.2069867984584585E+01
C    1.3952782617059832E+01   -4.3490321357142436E+00    1.2070215649541133E+01
C    1.5378351509743018E+01   -4.3352502869776659E+00    1.2120346136788314E+01
C    1.1800687063506881E+01   -3.1234498317926045E+00    1.2201949420733955E+01
C    1.3214037882537308E+01   -3.0937810637158099E+00    1.2093648116616059E+01
C    1.4008263566518334E+01   -1.4212868045117201E+01    1.1917850876374390E+01
C    1.5435596451580118E+01   -1.4244858373341630E+01    1.1754447556848904E+01
C    3.2921832782592273E+00   -6.1544478895117904E-01    1.2059778248613744E+01
C    4.7106400428334076E+00   -5.8934538195799846E-01    1.2112910684549551E+01
C    5.4462776556185375E+00    5.8401017731933558E-01    1.1960917964041283E+01
C    6.8522129301539296E+00    5.8980721881139819E-01    1.1946814841951603E+01
C    3.2971090681332584E+00    1.8655052554951732E+00    1.2010345181831596E+01
C    4.7418044891378885E+00    1.8281888482933359E+00    1.2000532679491217E+01
C    5.3855676998532500E+00    3.0797341308682857E+00    1.2098343201915613E+01
C    6.7996861298976503E+00    3.0758425241137242E+00    1.2022021937950880E+01
C    3.2782713130703365E+00    4.3432979710486688E+00    1.2109184268444313E+01
C    4.7025424779784233E+00    4.3021851104437649E+00    1.2068807013282791E+01
C    5.4941537775794744E+00    5.5099377489941324E+00    1.2114249176501126E+01
C    6.8991116996468085E+00    5.5041584770668246E+00    1.2104916104312748E+01
C    3.2870128350885435E+00    6.7591333199126300E+00    1.2126009048784601E+01
C    4.7268328485098330E+00    6.7276706974946334E+00    1.2149543092441984E+01
C    5.4243842875341182E+00    7.9752798753593908E+00    1.2278491135987124E+01
C    6.8500754123216270E+00    7.9976439809257389E+00    1.2215357981947413E+01
C    3.3405638389223018E+00    9.1901323209835883E+00    1.2437176464908543E+01
C    4.7607970689934227E+00    9.2029829965520378E+00    1.2333452824666731E+01
C    5.4169577705536778E+00   -1.8723131441805294E+00    1.2165313693798957E+01
C    6.8582087436558474E+00   -1.8783051238888766E+00    1.2178041596492557E+01
C    7.5308159546102544E+00   -6.6046561865837516E-01    1.2080946854213268E+01
C    8.9869135034784247E+00   -6.5230596844625721E-01    1.2111643145578299E+01
C    9.6345375928841595E+00    5.7447116038859314E-01    1.1884435957198486E+01
C    1.1067311087891792E+01    6.3957602348010423E-01    1.1958404058951102E+01
C    7.5322355304512003E+00    1.8470484639369271E+00    1.1940959796341001E+01
C    8.9575283665049312E+00    1.8645033767060244E+00    1.1750069538466962E+01
C    9.6902428651766144E+00    3.0911629541313586E+00    1.1771884108533644E+01
C    1.1093896386558585E+01    3.0765529172816191E+00    1.1838969142796525E+01
C    7.5329444325999519E+00    4.2949814390129637E+00    1.2029792985348125E+01
C    9.0200855574083629E+00    4.3122328935349072E+00    1.2014428531385178E+01
C    9.7139693496874084E+00    5.5484116392844562E+00    1.2109229058592179E+01
C    1.1107341582934982E+01    5.5745705326237882E+00    1.1966952716771017E+01
C    7.5824424754794091E+00    6.8023365714683113E+00    1.2214190221203435E+01
C    8.9852554399824918E+00    6.7643743112256383E+00    1.2112068308688352E+01
C    9.6919321547813908E+00    8.0209839717723916E+00    1.2101454347725083E+01
C    1.1136821349855779E+01    8.0276454214289998E+00    1.2046883446168735E+01
C    7.5593898607055907E+00    9.2840651369996774E+00    1.2203115160165684E+01
C    9.0415770955356329E+00    9.2766744403605355E+00    1.2210928172943047E+01
C    9.6882549730067087E+00   -1.8809795300061216E+00    1.2179301605196260E+01
C    1.1138191960687037E+01   -1.8262924445512436E+00    1.2243413750589934E+01
C    1.1861686936224418E+01   -6.0475985470464733E-01    1.2024809736034705E+01
C    1.3289662118370890E+01   -5.8476092169138150E-01    1.1985689563973020E+01
C    1.3960775587202015E+01    6.5870210148376818E-01    1.1923120126013949E+01
C    1.5395997188050446E+01    6.4463206646884730E-01    1.2083060779857087E+01
C    1.1808594106322191E+01    1.8772577874004666E+00    1.1934846661966445E+01
C    1.3216692674744632E+01    1.8710584490036308E+00    1.2014974390208371E+01
C    1.3974406895671262E+01    3.0595772014992888E+00    1.1946439287164639E+01
C    1.5392553327442062E+01    3.0094041340686730E+00    1.1922815836918002E+01
C    1.1822048671185623E+01    4.3185017701368649E+00    1.1979743808544292E+01
C    1.3257290153323401E+01    4.2954657337213717E+00    1.1911969285237536E+01
C    1.3925773227396245E+01    5.5746549459733670E+00    1.1816441983731282E+01
C    1.5360273024371796E+01    5.5468485215557015E+00    1.1917693787006634E+01
C    1.1833742873171918E+01    6.8168591850951916E+00    1.1877071531099174E+01
C    1.3240506660868000E+01    6.7669271343704160E+00    1.1796731232681967E+01
C    1.3990740854070490E+01    8.0271489717708491E+00    1.1873311049439733E+01
C    1.5476260352601336E+01    7.9815964349922188E+00    1.1869144819476386E+01
C    1.1889015787120810E+01    9.2780074666845511E+00    1.2059781824751255E+01
C    1.3291931008304088E+01    9.2391686033516471E+00    1.1974452092204571E+01
C    1.3944151328230745E+01   -1.8387049599232494E+00    1.2008255119345504E+01
C    1.5390726739002027E+01   -1.8480234647057525E+00    1.2064514317405427E+01
C    1.6097594443351682E+01   -1.2953652132431230E+01    1.1901842212416279E+01
C    1.7523249433623512E+01   -1.2889058970726140E+01    1.2055632888241529E+01
C    1.8264737575528148E+01   -1.1719278946780619E+01    1.2148177279179610E+01
C    1.9690671315273732E+01   -1.1728250571769514E+01    1.2181951131546958E+01
C    1.6193004181195487E+01   -1.0525455542067263E+01    1.2055941647742710E+01
C    1.7619139762002956E+01   -1.0467236103803854E+01    1.2091867302440482E+01
C    1.8262576056805159E+01   -9.2405242007939083E+00    1.2175753375556917E+01
C    1.9725223490380298E+01   -9.2750559053009578E+00    1.2335914064559185E+01
C    1.6132656116592038E+01   -8.0793446880091864E+00    1.2072505596148336E+01
C    1.7530580806843759E+01   -8.0439208328849698E+00    1.2262982558830295E+01
C    1.8261178720033424E+01   -6.8353561012654653E+00    1.2376799440830785E+01
C    1.9706899237246603E+01   -6.8338338812150372E+00    1.2425737290206113E+01
C    1.6083957437414714E+01   -5.6314114356376868E+00    1.2124781651851668E+01
C    1.7532519278769406E+01   -5.6211920832575597E+00    1.2262218663805610E+01
C    1.8211901454344595E+01   -4.3640344930966446E+00    1.2197502598651660E+01
C    1.9692408134055931E+01   -4.3490007833240982E+00    1.2226506875313024E+01
C    1.6070013936482631E+01   -3.1179550697662215E+00    1.2136058969164646E+01
C    1.7555334687719416E+01   -3.1160046635032730E+00    1.2106351978609869E+01
C    1.8282291095028743E+01   -1.4117416692156247E+01    1.1986577143636390E+01
C    1.9698550592354611E+01   -1.4151612572434075E+01    1.2125927440695008E+01
C    2.0408561133688476E+01   -1.2935882127999983E+01    1.2223000287590290E+01
C    2.1793931256094915E+01   -1.2934293295871996E+01    1.2400904172736677E+01
C    2.2534524037997695E+01   -1.1767749153899700E+01    1.2513098722473599E+01
C    2.3978388148220727E+01   -1.1748892874903154E+01    1.2610184795294368E+01
C    2.0475470665005712E+01   -1.0503586728331046E+01    1.2272601098687343E+01
C    2.1884275239523664E+01   -1.0497947089885134E+01    1.2479357966102388E+01
C    2.2588221505287212E+01   -9.2742484056144878E+00    1.2527314959604993E+01
C    2.3970308822678557E+01   -9.2191585492976511E+00    1.2563520313743163E+01
C    2.0468612571179268E+01   -8.0675827586856013E+00    1.2337661387923621E+01
C    2.1876711124457149E+01   -8.0534248468861218E+00    1.2496932039685859E+01
C    2.2532690139525180E+01   -6.7842693641870113E+00    1.2448544187582790E+01
C    2.3973448601421858E+01   -6.7833570516195394E+00    1.2401047647550397E+01
C    2.0429064535066857E+01   -5.5721185734911867E+00    1.2351452633177738E+01
C    2.1871731046331558E+01   -5.5504513494575356E+00    1.2394628997590859E+01
C    2.2564458717757102E+01   -4.3208456897999339E+00    1.2334043137708449E+01
C    2.3985674807587817E+01   -4.2925508934357088E+00    1.2314728456445284E+01
C    2.0421587024863090E+01   -3.1301953902153827E+00    1.2115298002790992E+01
C    2.1879695903439345E+01   -3.0722301844432560E+00    1.2084377262451669E+01
C    2.2492132589511119E+01   -1.4122463293501777E+01    1.2531741878817837E+01
C    2.3935424337988735E+01   -1.4237452471110482E+01    1.2572661859362304E+01
C    2.4662466046169932E+01   -1.3039438818898812E+01    1.2630206213290103E+01
C    2.6076533759733003E+01   -1.2963137224272955E+01    1.2644530271318116E+01
C    2.6770615335588197E+01   -1.1744541572859546E+01    1.2571270140788938E+01
C    2.8198097122071648E+01   -1.1766569753377237E+01    1.2554480521216453E+01
C    2.4676786523172986E+01   -1.0465188712251278E+01    1.2627701175799553E+01
C    2.6098348377081216E+01   -1.0467154599671211E+01    1.2574234824490995E+01
C    2.6794065456090554E+01   -9.2086940450787971E+00    1.2507287059303295E+01
C    2.8227813894338908E+01   -9.2982883281248547E+00    1.2564944786952688E+01
C    2.4654660443908927E+01   -8.0014521461567210E+00    1.2427757342683559E+01
C    2.6098073801208493E+01   -7.9731659020004866E+00    1.2426270132865479E+01
C    2.6812924455158903E+01   -6.7568693017609469E+00    1.2448891839870459E+01
C    2.8224816033317271E+01   -6.7640309443976818E+00    1.2432219885180503E+01
C    2.4710767353667578E+01   -5.5354384647518708E+00    1.2372625680521333E+01
C    2.6119587554066076E+01   -5.5346525093560972E+00    1.2409477469451966E+01
C    2.6827116402357383E+01   -4.2777301822319185E+00    1.2245118680126712E+01
C    2.8261953900993259E+01   -4.2945144302136722E+00    1.2317529603397457E+01
C    2.4674029675864048E+01   -3.0663532410843208E+00    1.2106286319758683E+01
C    2.6079075694059171E+01   -3.0666117832474127E+00    1.2056571785130229E+01
C    2.6796371847858115E+01   -1.4184731517464741E+01    1.2699147986251177E+01
C    2.8228544658012446E+01   -1.4238699672529881E+01    1.2553515949484501E+01
C    1.6118802578129042E+01   -6.0958739737714995E-01    1.2019506863410548E+01
C    1.7570890864969485E+01   -6.3926899544943516E-01    1.2039197683984964E+01
C    1.8258854722537318E+01    5.6631190940288112E-01    1.2101636894381899E+01
C    1.9663236620913771E+01    6.0214238981936685E-01    1.2172693635706812E+01
C    1.6143456940573572E+01    1.8700937894591907E+00    1.2062687479256697E+01
C    1.7578525645176768E+01    1.8141281581753064E+00    1.2069482617876025E+01
C    1.8251319146034451E+01    3.0651918546388717E+00    1.2177962135341010E+01
C    1.9656957910140562E+01    3.0621142007017821E+00    1.2194272405811862E+01
C    1.6085770619040851E+01    4.3185225909512921E+00    1.1977271019070503E+01
C    1.7521132991305929E+01    4.2630783241991574E+00    1.2045889260168192E+01
C    1.8258900732944731E+01    5.5001747511375250E+00    1.2033784769463136E+01
C    1.9652189355260674E+01    5.5101100492616757E+00    1.2224777784188227E+01
C    1.6083701646920261E+01    6.7535012307800306E+00    1.1997816205330137E+01
C    1.7538613898767579E+01    6.7860842925306484E+00    1.1976582639375151E+01
C    1.8244670195553169E+01    8.0371635511366897E+00    1.2001770999716404E+01
C    1.9629542119647276E+01    8.0162462893769000E+00    1.2244966186133217E+01
C    1.6169833989237361E+01    9.1784061890749147E+00    1.1814828675742071E+01
C    1.7559807640899738E+01    9.3094153445184471E+00    1.1918803051408684E+01
C    1.8285801588524652E+01   -1.8822825945479289E+00    1.2095792849261965E+01
C    1.9708227194801289E+01   -1.8412417196981834E+00    1.2022561412690740E+01
C    2.0404458576397275E+01   -6.2509105556927202E-01    1.2054549395238352E+01
C    2.1846108421099220E+01   -6.3734279501270563E-01    1.2044312162779935E+01
C    2.2592512769787387E+01    6.1892131932366701E-01    1.2105549706021955E+01
C    2.3994166684513985E+01    6.0159048299621254E-01    1.2048914674544665E+01
C    2.0413252130103231E+01    1.8237161542883529E+00    1.2141680582470501E+01
C    2.1841627765080240E+01    1.8437879603317417E+00    1.2201929465817349E+01
C    2.2492683305488772E+01    3.0796321277585545E+00    1.2337071054228401E+01
C    2.3946139491186539E+01    3.0186626358337647E+00    1.2280808402315525E+01
C    2.0326745793092925E+01    4.2942854661559364E+00    1.2269053560487453E+01
C    2.1752489855974943E+01    4.2988525315532922E+00    1.2292852064477319E+01
C    2.2474764228871649E+01    5.5180137273087402E+00    1.2309080510903755E+01
C    2.3904891398007219E+01    5.5030456319433867E+00    1.2436560966769992E+01
C    2.0382344865068536E+01    6.7745661007745275E+00    1.2300259736250679E+01
C    2.1778505536133792E+01    6.7689752675661223E+00    1.2438018372914810E+01
C    2.2509822606143054E+01    8.0287409544685033E+00    1.2419992590402968E+01
C    2.3900993373099418E+01    7.9378769544555059E+00    1.2518552051966362E+01
C    2.0376104071338986E+01    9.2579795707821244E+00    1.2233560255969948E+01
C    2.1782213580114021E+01    9.2762991895755249E+00    1.2454628946368496E+01
C    2.2540745404484493E+01   -1.8438796654337399E+00    1.2089325549476763E+01
C    2.3947280286392122E+01   -1.8403471296820784E+00    1.2187969367920207E+01
C    2.4676217693117152E+01   -6.0501348058485993E-01    1.2043442083694508E+01
C    2.6098278618476126E+01   -6.5078599246194091E-01    1.1927388436763691E+01
C    2.6798552716956731E+01    6.4689010029532212E-01    1.2075330447279750E+01
C    2.8237476255062205E+01    6.8608717273651043E-01    1.1986422671423286E+01
C    2.4665575137969384E+01    1.8489616691470023E+00    1.2108601855823808E+01
C    2.6071585980596325E+01    1.8646739184525105E+00    1.2161962110876599E+01
C    2.6799381529078630E+01    3.0562355496800953E+00    1.2175945430939784E+01
C    2.8231752656580340E+01    3.0916605035617444E+00    1.2137439799684886E+01
C    2.4600171142057416E+01    4.2577226097388881E+00    1.2244282432813652E+01
C    2.6058464812106099E+01    4.2565357890797815E+00    1.2202756253727314E+01
C    2.6771483856364874E+01    5.5336752843121673E+00    1.2258810867856882E+01
C    2.8186226036592373E+01    5.5433124999509440E+00    1.2152193765596927E+01
C    2.4637963521526917E+01    6.7183069769937429E+00    1.2432897750919539E+01
C    2.6062066925894513E+01    6.7574413517985894E+00    1.2431734020358856E+01
C    2.6764777587505751E+01    7.9580001089599302E+00    1.2521935404227342E+01
C    2.8212612886522763E+01    7.9283877857627969E+00    1.2363105682576297E+01
C    2.4685141633268668E+01    9.2065215633144479E+00    1.2558834065751340E+01
C    2.6098804865824324E+01    9.2276031845239004E+00    1.2686083762734016E+01
C    2.6770116021026741E+01   -1.8552825144778005E+00    1.1946781983858431E+01
C    2.8203944146264487E+01   -1.8112994392247328E+00    1.2090632363593699E+01
O    2.2485020830607357E+02    2.2588589624968500E+02    1.6737689878893683E+01
H    2.2495038903852233E+02    2.2599212710285019E+02    1.7705907538332276E+01
H    2.2413712947861015E+02    2.2519034916611946E+02    1.6386433304297437E+01
O    2.2902295147357310E+02    1.6850610128822490E+02    2.8871844144731085E+01
H    2.2823113468417463E+02    1.6795426520364069E+02    2.9156560253639729E+01
H    2.2968180792407892E+02    1.6798793765754522E+02    2.8314046319280752E+01
O    1.5106316988518014E+02    3.3572867211877571E+02    3.0140679837852083E+01
H    1.5087180607285717E+02    3.3566759071993971E+02    2.9124451793956990E+01
H    1.5018256412472076E+02    3.3597163268852614E+02    3.0542226823066219E+01
O    2.6098492079037112E+02    1.5433239691377045E+02    3.2901974641154290E+01
H    2.6104114796032303E+02    1.5385199295694215E+02    3.3750349818714255E+01
H    2.6174881716884306E+02    1.5405425381361817E+02    3.2360457191908679E+01
O    2.1102163972931695E+02    2.9642037029336723E+02    2.3675921130899333E+01
H    2.1051937292759916E+02    2.9577310053285265E+02    2.4299631105069665E+01
H    2.1107551635367778E+02    2.9720943075904432E+02    2.4296116664792251E+01
O    1.5579945796750550E+02    1.4101944403436863E+02    1.8481239033638541E+01
H    1.5501870838216263E+02    1.4157932957462572E+02    1.8368687273588328E+01
H    1.5655646451971015E+02    1.4164278196043242E+02    1.8411281938011644E+01
O    2.1514037310877444E+02    2.8638693590046370E+02    1.5420582752324279E+01
H    2.1555216579312872E+02    2.8549735080590165E+02    1.5314430018231461E+01
H    2.1585040170456071E+02    2.8702739660493415E+02    1.5509557065447053E+01
O    2.1606683756737365E+02    1.4878687238620216E+02    2.7479803339971831E+01
H    2.1622634660936077E+02    1.4974045373804370E+02    2.7376341181978180E+01
H    2.1510740316788488E+02    1.4876864111209545E+02    2.7153495074849477E+01
O    1.5332431431621191E+02    2.7853836404311591E+02    1.6090095966500829E+01
H    1.5239375509000845E+02    2.7879868251981128E+02    1.5836548647171664E+01
H    1.5387714162396244E+02    2.7938074810580537E+02    1.5968003657235711E+01
O    3.1669593448529292E+02    2.2645660900058769E+02    2.2663456921977843E+01
H    3.1760306227021078E+02    2.2629989969225690E+02    2.2252797612955870E+01
H    3.1602339186202681E+02    2.2634300530971353E+02    2.1947131669882758E+01
O    1.8611758813410108E+02    2.5471330545760580E+02    1.9504253512881121E+01
H    1.8699313277069982E+02    2.5449773242333819E+02    1.9277205197172560E+01
H    1.8604358078871650E+02    2.5558980172110560E+02    1.9064139445284304E+01
O    1.6020624072395245E+02    2.6778645545934683E+02    1.6035647738480147E+01
H    1.6009810485536846E+02    2.6685431540233520E+02    1.5719309181544082E+01
H    1.6099187521176754E+02    2.6777850761166434E+02    1.6686444857972294E+01
O    2.3766302637046923E+02    1.2804498735667886E+02    1.8254367743481307E+01
H    2.3666959941350916E+02    1.2839454135128176E+02    1.8215612616263776E+01
H    2.3819680447801085E+02    1.2889246350334344E+02    1.8226338998942655E+01
O    2.6803570788826852E+02    1.7089491739584210E+02    2.3510256500230827E+01
H    2.6741556363098567E+02    1.7062821247716937E+02    2.2748071460958656E+01
H    2.6855971393797375E+02    1.7167336370445142E+02    2.3147792826920721E+01
O    1.3305585310062162E+02    2.4533812835558194E+02    2.5412806502267316E+01
H    1.3368132849034990E+02    2.4548103187695429E+02    2.6189539362583947E+01
H    1.3316797298580991E+02    2.4433332919359259E+02    2.5214389110709362E+01
O    2.0583934359044517E+02    2.8562542072472360E+02    2.3018994738711282E+01
H    2.0671131047487438E+02    2.8594786820842279E+02    2.2804475690796700E+01
H    2.0606040751606619E+02    2.8507738595223339E+02    2.3816441839450313E+01
O    1.7487697964623334E+02    2.7907787500834360E+02    2.4577173600542935E+01
H    1.7548002967629031E+02    2.7883101781716533E+02    2.3837363110351848E+01
H    1.7473885095485579E+02    2.7821424946850766E+02    2.5081021605449283E+01
O    2.3147419687276042E+02    1.9763172192312155E+02    2.4795802468199028E+01
H    2.3093730222711915E+02    1.9680050707810014E+02    2.4891979163372206E+01
H    2.3221298665196267E+02    1.9764932782093746E+02    2.5438248052589227E+01
O    2.1676085694262994E+02    1.9549334736957624E+02    1.5601037351953781E+01
H    2.1580038682002703E+02    1.9570448691846485E+02    1.5520530024489450E+01