 # Version information for this restart file 
 # current date 2019-01-28 11:14:23.892
 # current working dir /scratch/snx3000/gtocci/gtocci/MEMBRANES/AIMD_US_IONS_GRA/potassium/aimd_us_pot/us_9
 # Program compiled at                             Thu Oct 11 21:49:41 CEST 2018
 # Program compiled on                                                  daint104
 # Program compiled for                                   CRAY_XC50-gfortran_gpu
 # Source code revision number                                     git:be74c20a5
 &GLOBAL
   PRINT_LEVEL  LOW
   PROJECT_NAME GRAS
   RUN_TYPE  MD
   WALLTIME 10200
 &END GLOBAL
 &MOTION
   &MD
     ENSEMBLE  NVT
     STEPS  100000
     TIMESTEP     9.9999999999999989E-01
     STEP_START_VAL  41545
     TIME_START_VAL     4.1544999999989515E+04
     ECONS_START_VAL    -8.3207060689624577E+03
     TEMPERATURE     3.0000000000000000E+02
     TEMP_KIND  T
     &BAROSTAT
       PRESSURE     1.0000000000000000E+00
       TIMECON     9.9999999999999986E+01
       VIRIAL  Z
     &END BAROSTAT
     &THERMOSTAT
       TYPE  NOSE
       REGION  GLOBAL
       &NOSE
         LENGTH  4
         TIMECON     9.9999999999999986E+01
         MTS  2
         &COORD
               1.1876845482235066E-01   -6.5370539068627700E+00    6.7949503902838195E+00    4.9039092270575413E+00
         &END COORD
         &VELOCITY
               5.6644237424446723E-07   -7.8701920352248491E-05    3.4644691703380201E-04    5.4908949673726611E-05
         &END VELOCITY
         &MASS
               7.0145132684705392E+07    1.6237299232570693E+04    1.6237299232570693E+04    1.6237299232570693E+04
         &END MASS
         &FORCE
               1.5265146999908408E-09   -5.7123911768477527E-08   -5.2316021582973404E-08    6.1515452472121028E-08
         &END FORCE
       &END NOSE
     &END THERMOSTAT
     &AVERAGES  T
       &RESTART_AVERAGES
         ITIMES_START  1
         AVECPU     4.6513059892184579E+01
         AVEHUGONIOT     0.0000000000000000E+00
         AVETEMP_BARO     0.0000000000000000E+00
         AVEPOT    -8.3232638943500187E+03
         AVEKIN     2.0521555025063103E+00
         AVETEMP     3.0000864872501694E+02
         AVEKIN_QM     0.0000000000000000E+00
         AVETEMP_QM     0.0000000000000000E+00
         AVEVOL     2.1331414786628052E+05
         AVECELL_A     4.8437460238125063E+01
         AVECELL_B     4.6608961231944789E+01
         AVECELL_C     9.4486306644279523E+01
         AVEALPHA     9.0000000000000057E+01
         AVEBETA     9.0000000000000057E+01
         AVEGAMMA     9.0000000000000057E+01
         AVE_ECONS    -1.4132418720984781E+00
         AVE_PRESS     0.0000000000000000E+00
         AVE_PXX     0.0000000000000000E+00
       &END RESTART_AVERAGES
     &END AVERAGES
     &PRINT
       &TEMP_KIND  SILENT
       &END TEMP_KIND
     &END PRINT
   &END MD
   &FREE_ENERGY
     &METADYN
       MIN_DISP    -1.0000000000000000E+00
       OLD_HILL_NUMBER  0
       OLD_HILL_STEP  0
       DO_HILLS  F
       STEP_START_VAL  41545
       NHILLS_START_VAL  0
       &METAVAR
         SCALE     1.0000000000000000E+00
         COLVAR  1
       &END METAVAR
       &PRINT
         &COLVAR  SILENT
           COMMON_ITERATION_LEVELS  3
           &EACH
             MD  1
           &END EACH
         &END COLVAR
       &END PRINT
     &END METADYN
   &END FREE_ENERGY
   &CONSTRAINT
     &COLLECTIVE
       COLVAR  1
       INTERMOLECULAR  T
       &RESTRAINT
         K     4.4625385281452931E-04
       &END RESTRAINT
     &END COLLECTIVE
     &COLVAR_RESTART
           8.5037675979853944E+00
     &END COLVAR_RESTART
   &END CONSTRAINT
   &PRINT
     &TRAJECTORY  SILENT
       &EACH
         MD  1
       &END EACH
     &END TRAJECTORY
     &VELOCITIES  SILENT
       &EACH
         MD  1
       &END EACH
     &END VELOCITIES
     &FORCES  SILENT
       UNIT eV*angstrom^-1
       &EACH
         MD  1
       &END EACH
     &END FORCES
     &RESTART  SILENT
       &EACH
         MD  1
       &END EACH
     &END RESTART
     &RESTART_HISTORY  SILENT
       &EACH
         MD  100
       &END EACH
     &END RESTART_HISTORY
   &END PRINT
 &END MOTION
 &FORCE_EVAL
   METHOD  QS
   &DFT
     BASIS_SET_FILE_NAME /users/gtocci/scratch_daint_3000/data_cp2k//BASIS_MOLOPT
     POTENTIAL_FILE_NAME /users/gtocci/scratch_daint_3000/data_cp2k//GTH_POTENTIALS
     WFN_RESTART_FILE_NAME ./GRAS-RESTART.wfn
     CHARGE  1
     &SCF
       MAX_SCF  10
       EPS_SCF     9.9999999999999995E-07
       SCF_GUESS  RESTART
       &OT  T
         MINIMIZER  DIIS
         PRECONDITIONER  FULL_KINETIC
       &END OT
       &OUTER_SCF  T
         EPS_SCF     9.9999999999999995E-07
         MAX_SCF  30
       &END OUTER_SCF
       &PRINT
         &RESTART  SILENT
           ADD_LAST  NUMERIC
           &EACH
             QS_SCF  50
           &END EACH
         &END RESTART
       &END PRINT
     &END SCF
     &QS
       MAP_CONSISTENT  T
       EXTRAPOLATION  ASPC
       EXTRAPOLATION_ORDER  4
     &END QS
     &MGRID
       NGRIDS  5
       CUTOFF     4.6000000000000000E+02
     &END MGRID
     &XC
       DENSITY_CUTOFF     1.0000000000000000E-10
       GRADIENT_CUTOFF     1.0000000000000000E-10
       TAU_CUTOFF     1.0000000000000000E-10
       &XC_GRID
         XC_DERIV  SPLINE2_SMOOTH
       &END XC_GRID
       &XC_FUNCTIONAL  NO_SHORTCUT
         &LIBXC  T
           FUNCTIONAL XC_GGA_X_OPTB88_VDW
         &END LIBXC
         &VWN  T
         &END VWN
       &END XC_FUNCTIONAL
       &VDW_POTENTIAL
         POTENTIAL_TYPE  NON_LOCAL
         &NON_LOCAL
           TYPE  DRSLL
           VERBOSE_OUTPUT  T
           KERNEL_FILE_NAME /users/gtocci/scratch_daint_3000/data_cp2k//vdW_kernel_table.dat
         &END NON_LOCAL
       &END VDW_POTENTIAL
     &END XC
     &REAL_TIME_PROPAGATION
       INITIAL_WFN  SCF_WFN
     &END REAL_TIME_PROPAGATION
     &PRINT
       &MULLIKEN  SILENT
         FILENAME =GRAS.mulliken
       &END MULLIKEN
     &END PRINT
   &END DFT
   &SUBSYS
     &CELL
       A     2.5632000000000001E+01    0.0000000000000000E+00    0.0000000000000000E+00
       B     0.0000000000000000E+00    2.4664400000000022E+01    0.0000000000000000E+00
       C     0.0000000000000000E+00    0.0000000000000000E+00    5.0000000000000028E+01
       MULTIPLE_UNIT_CELL  1 1 1
     &END CELL
     &COORD
C   -7.3882061675615918E-01    1.1277830657036494E+01    4.5111077333301655E+00
C    6.8418965144985044E-01    1.1304628282867547E+01    4.6451444317287169E+00
C    1.3804524648431586E+00    1.2563671083112713E+01    4.6765906007298019E+00
C    2.7947725348849830E+00    1.2552157396556833E+01    4.7610989651282942E+00
C   -7.2901343360617754E-01    1.3779947764873604E+01    4.6036329353550318E+00
C    6.7406794469788001E-01    1.3804751672620259E+01    4.5995646226607372E+00
C    1.3728998346241499E+00    1.5027198883887600E+01    4.6764691836621051E+00
C    2.7951594011498484E+00    1.5028481902324950E+01    4.6216405211944664E+00
C   -7.1670723982955897E-01    1.6258244006760371E+01    4.5875733961683363E+00
C    6.9427747571462484E-01    1.6280831504176096E+01    4.6599154736665840E+00
C    1.3603911326550551E+00    1.7512657614014536E+01    4.7823046371377851E+00
C    2.8062682491064987E+00    1.7505163603665888E+01    4.7472824712552733E+00
C   -7.7466376416568217E-01    1.8732552339524386E+01    4.8556052637697400E+00
C    6.7676699475159108E-01    1.8724885962295488E+01    4.8235529318887291E+00
C    1.3584400155480236E+00    1.9961573601121703E+01    4.7704799502508450E+00
C    2.8228478468247671E+00    1.9945971713565573E+01    4.7097347364430142E+00
C   -7.5419628434789521E-01    2.1207281605037291E+01    4.7979373432786181E+00
C    6.6446144399900064E-01    2.1147601132545404E+01    4.6501796875599082E+00
C    1.3974950431527979E+00    1.0045174572648351E+01    4.7129432724081379E+00
C    2.7963780197397421E+00    1.0068193982926475E+01    4.8134136432835817E+00
C    3.5122611733083779E+00    1.1287343509884554E+01    4.8155230654088603E+00
C    4.9511208046588298E+00    1.1305530065868346E+01    4.7457824771505610E+00
C    5.6501173631268111E+00    1.2525218807062311E+01    4.6660271569625520E+00
C    7.0738149037967952E+00    1.2519760271634080E+01    4.5665919559752490E+00
C    3.5075091734644772E+00    1.3784862925095089E+01    4.6889490221653665E+00
C    4.9645291156744014E+00    1.3775878503844948E+01    4.5912987555390181E+00
C    5.6053012955656500E+00    1.5033855755084332E+01    4.5146765587078699E+00
C    7.0149048852484164E+00    1.5011978376958297E+01    4.4438696407165610E+00
C    3.4689564426642412E+00    1.6267738067036156E+01    4.6414239046431938E+00
C    4.9000974628093497E+00    1.6247630904168279E+01    4.5159234345562052E+00
C    5.6437218149069404E+00    1.7493048969856179E+01    4.3946514342530856E+00
C    7.0584693672746273E+00    1.7458742158706162E+01    4.3035564275366394E+00
C    3.5092764242989496E+00    1.8724311713721463E+01    4.6959933154313624E+00
C    4.9318745896564513E+00    1.8749440333073231E+01    4.4653991712151040E+00
C    5.6022203681149971E+00    1.9974271084369235E+01    4.2476299395905022E+00
C    7.0328806121108691E+00    1.9991131214345643E+01    4.1612048717017052E+00
C    3.4906184527053763E+00    2.1202182917048297E+01    4.4173518641953162E+00
C    4.9050956082657073E+00    2.1216191028458567E+01    4.2506339937594895E+00
C    5.6723644645098821E+00    1.0084274994327654E+01    4.7316406890184215E+00
C    7.0865544563235465E+00    1.0083249727496280E+01    4.7021924362038199E+00
C    7.8085285989121251E+00    1.1289657662193870E+01    4.6305676847552357E+00
C    9.2013936031580901E+00    1.1276162128401513E+01    4.6000698012262387E+00
C    9.8851263392964928E+00    1.2556923157674770E+01    4.5736985280981246E+00
C    1.1341346395702669E+01    1.2539719145747314E+01    4.4907136815170050E+00
C    7.7306241930301125E+00    1.3787655486982795E+01    4.5744093541634641E+00
C    9.1821541079351334E+00    1.3788799775871054E+01    4.4831555741768954E+00
C    9.8632530879986380E+00    1.4997713579882582E+01    4.3769300445699084E+00
C    1.1336058210765522E+01    1.5028902586379848E+01    4.4299250592729686E+00
C    7.7766156191608431E+00    1.6240182978323229E+01    4.3849414157277087E+00
C    9.1749003137221834E+00    1.6231903859765339E+01    4.3098690476555648E+00
C    9.8747885819252943E+00    1.7469863610613270E+01    4.2815750459399711E+00
C    1.1304688636484379E+01    1.7508183351589977E+01    4.4656407583742812E+00
C    7.7359287763569657E+00    1.8698895900022016E+01    4.2274000970475356E+00
C    9.1501362442194054E+00    1.8709646444649366E+01    4.2165213277071842E+00
C    9.9323939511079331E+00    1.9926677008412707E+01    4.2520373332700308E+00
C    1.1378447521119801E+01    1.9920829416879048E+01    4.3169100300116741E+00
C    7.7685557034731767E+00    2.1173657704057721E+01    4.1544097790792440E+00
C    9.2258771378092614E+00    2.1200819259376306E+01    4.2053289183668303E+00
C    9.9248242052266065E+00    1.0061676164639771E+01    4.5956770991051332E+00
C    1.1352613585565669E+01    1.0064947288252794E+01    4.5487364578243517E+00
C   -7.5217356201277485E-01    2.3654369082812998E+01    4.6214428856982268E+00
C    6.7439723388691097E-01    2.3650690832505795E+01    4.5427789714429485E+00
C    1.3759692359916584E+00    2.4890186707462306E+01    4.4404599701673622E+00
C    2.7747120741891087E+00    2.4852549433238835E+01    4.4085925676377542E+00
C   -7.2586762735565247E-01    2.6126140935342246E+01    4.4451504836674927E+00
C    7.0127441280418779E-01    2.6115730622979413E+01    4.3586856831262990E+00
C    1.3809283014417857E+00    2.7369287888032218E+01    4.3900377822842147E+00
C    2.7743160104159670E+00    2.7354057910915618E+01    4.5316435192882496E+00
C   -7.7459292446557126E-01    2.8583475820424553E+01    4.5233819813315401E+00
C    6.3060952938271952E-01    2.8582193003114451E+01    4.4527478874637909E+00
C    1.3703240585309320E+00    2.9799424142804593E+01    4.5711080048159536E+00
C    2.7810976621662093E+00    2.9775365405692789E+01    4.6938319361285084E+00
C   -7.4733981089490975E-01    3.1036528614024665E+01    4.5985088217650496E+00
C    6.4610636297530888E-01    3.1051748910130122E+01    4.6609537005398476E+00
C    1.4119264324715732E+00    3.2257386722922007E+01    4.7716712872344296E+00
C    2.8389640044627953E+00    3.2251178986815198E+01    4.8398179502809979E+00
C   -6.8696031814871839E-01    3.3529624458526619E+01    4.6690894514537415E+00
C    7.0364199925808124E-01    3.3474380519562835E+01    4.7224384934478021E+00
C    1.3647310356387188E+00    2.2386993972892537E+01    4.5280295609430627E+00
C    2.7988237793172761E+00    2.2407100007301334E+01    4.4088240310108162E+00
C    3.5041517188149420E+00    2.3653441995725821E+01    4.3731154583667626E+00
C    4.9334987339038143E+00    2.3638864732424434E+01    4.3216293390817588E+00
C    5.6120992275402068E+00    2.4894248386681802E+01    4.4594949678181219E+00
C    7.0543742067117128E+00    2.4859169125822959E+01    4.5198648192355231E+00
C    3.4542201329845730E+00    2.6105476374558563E+01    4.4428308782278103E+00
C    4.8908955968115508E+00    2.6110164167614528E+01    4.4781210474783206E+00
C    5.6388468156286535E+00    2.7327479211201737E+01    4.5557913114842146E+00
C    7.0296393234956822E+00    2.7331565899938703E+01    4.5174564367115773E+00
C    3.4695893210379589E+00    2.8561479905171574E+01    4.6659486468865339E+00
C    4.9078001306761490E+00    2.8538620215960528E+01    4.6455139782613264E+00
C    5.6344164759669138E+00    2.9735275828975329E+01    4.8242360814972196E+00
C    7.0524579179836220E+00    2.9790027093078233E+01    4.7570680581626990E+00
C    3.5250285136839827E+00    3.0996753537339107E+01    4.8264273151824835E+00
C    4.9433645440277036E+00    3.0972212192963077E+01    4.8544417327522948E+00
C    5.6084143313264008E+00    3.2231760744300473E+01    4.8507024073190488E+00
C    7.0251610728366156E+00    3.2273799784982309E+01    4.7588384441473544E+00
C    3.5403338515197817E+00    3.3505955122674543E+01    4.8765578342497635E+00
C    4.9410932760342607E+00    3.3482830073269362E+01    4.8270682021943720E+00
C    5.6469930235190580E+00    2.2436966995502516E+01    4.2823066167122663E+00
C    7.0881253833263740E+00    2.2415160372300807E+01    4.2685683042515530E+00
C    7.7981167807842571E+00    2.3648018864313539E+01    4.4004357050304561E+00
C    9.1529263709937538E+00    2.3664477824374664E+01    4.2847212109633093E+00
C    9.8914263763882833E+00    2.4906778070113457E+01    4.2529352764837700E+00
C    1.1310475518133414E+01    2.4856741763121992E+01    4.2419351959784528E+00
C    7.7555709923211360E+00    2.6094411702221418E+01    4.5055577921568855E+00
C    9.1889087303520043E+00    2.6081912193651451E+01    4.4344353196233479E+00
C    9.8873654280528918E+00    2.7312268622278268E+01    4.4269100108154582E+00
C    1.1315094694275150E+01    2.7312550458517482E+01    4.3596893483969312E+00
C    7.7671480187761270E+00    2.8555928717868323E+01    4.6016413753112637E+00
C    9.1813648904938301E+00    2.8544461487750809E+01    4.5205937680084345E+00
C    9.8877291676687946E+00    2.9795574263342299E+01    4.5061706866850537E+00
C    1.1313505839342954E+01    2.9789043494225631E+01    4.3746283387147731E+00
C    7.7446643193479519E+00    3.1073464476725675E+01    4.7144782269402619E+00
C    9.1502330355635753E+00    3.1056718907242576E+01    4.6061439014280996E+00
C    9.8651881049769887E+00    3.2236866780618463E+01    4.5269195896182799E+00
C    1.1315261100728701E+01    3.2272543010837332E+01    4.4048869865901752E+00
C    7.7716167416567501E+00    3.3499757947863543E+01    4.6786249099236406E+00
C    9.1915528912026687E+00    3.3484525043257463E+01    4.6476546420015259E+00
C    9.9001342515364890E+00    2.2434813772238275E+01    4.3185634180653798E+00
C    1.1305101267842963E+01    2.2433589345221968E+01    4.2706805372247052E+00
C    1.2046032107256110E+01    1.1298533340616959E+01    4.5017798225576282E+00
C    1.3458399816970548E+01    1.1342475437888421E+01    4.4386756004450874E+00
C    1.4179772906488509E+01    1.2568327949744775E+01    4.4398291918355932E+00
C    1.5593113008088682E+01    1.2543812320521411E+01    4.3012538537732601E+00
C    1.2049258743175091E+01    1.3797863359107739E+01    4.4180517697274233E+00
C    1.3487797323802239E+01    1.3796150454737001E+01    4.3958879422023740E+00
C    1.4176114991734446E+01    1.5032871452874035E+01    4.4996757071424121E+00
C    1.5627271099157246E+01    1.5015959423375406E+01    4.3835695780977897E+00
C    1.2032034394346296E+01    1.6271692182480368E+01    4.4625031575283556E+00
C    1.3429924822489964E+01    1.6258131239794011E+01    4.5637337781276983E+00
C    1.4176778997406938E+01    1.7457419963980275E+01    4.4769472922071865E+00
C    1.5610294140286678E+01    1.7453874200110775E+01    4.4478397365172686E+00
C    1.2065390549341451E+01    1.8700110363794217E+01    4.3989461069231757E+00
C    1.3508278510343800E+01    1.8712024863641602E+01    4.3988930344649066E+00
C    1.4221552311246986E+01    1.9932237997727036E+01    4.2966746596438457E+00
C    1.5656102763748526E+01    1.9947424472520751E+01    4.2645351245231344E+00
C    1.2022290417284232E+01    2.1199636805365202E+01    4.2566911203569555E+00
C    1.3458258459803675E+01    2.1185897081087411E+01    4.1942196709646833E+00
C    1.4184185641530856E+01    1.0120105732686147E+01    4.4099407125077441E+00
C    1.5605533772663875E+01    1.0087738581510175E+01    4.3587153177359088E+00
C    1.6308744152477420E+01    1.1339196702449764E+01    4.2924281403544677E+00
C    1.7744321243533360E+01    1.1327735130225713E+01    4.1679291324212215E+00
C    1.8483079458920692E+01    1.2517760213849812E+01    4.1077371951754840E+00
C    1.9916674506159911E+01    1.2532995886298087E+01    4.1652606596072097E+00
C    1.6327281661058858E+01    1.3777171781181060E+01    4.2796307764579513E+00
C    1.7758558739116570E+01    1.3739229517568411E+01    4.1001414907750275E+00
C    1.8503832777394646E+01    1.4966904249865163E+01    4.1978240287218451E+00
C    1.9951754053522482E+01    1.5018640309776305E+01    4.2149309954196585E+00
C    1.6341709300819005E+01    1.6223379000298632E+01    4.4061601773667514E+00
C    1.7768052321048405E+01    1.6206469901575140E+01    4.3271301103548963E+00
C    1.8477774329699990E+01    1.7447697790695653E+01    4.3796833077283761E+00
C    1.9892261636208154E+01    1.7476519506288184E+01    4.4012554956233112E+00
C    1.6327455353843909E+01    1.8683004044960754E+01    4.3448148637488329E+00
C    1.7768296165036389E+01    1.8692030647589647E+01    4.3125668168428613E+00
C    1.8512748237852314E+01    1.9894627081298530E+01    4.2320675917229682E+00
C    1.9940672082714645E+01    1.9923500964667451E+01    4.3133877911168046E+00
C    1.6361979462680040E+01    2.1166618923242577E+01    4.1733944441953730E+00
C    1.7792978658881808E+01    2.1135060935229497E+01    4.1680803128976383E+00
C    1.8444894609348257E+01    1.0066496110327012E+01    4.1809042054608154E+00
C    1.9839082192834514E+01    1.0096732208565966E+01    4.2832931359926683E+00
C    2.0601157852411212E+01    1.1299305831898437E+01    4.3653586951997596E+00
C    2.2064911599801754E+01    1.1317439196384765E+01    4.4465274710321525E+00
C    2.2767371384409852E+01    1.2543839990330314E+01    4.4648437380021440E+00
C    2.4184698301602815E+01    1.2520105801550928E+01    4.5516235997944943E+00
C    2.0621709021190039E+01    1.3770369839069145E+01    4.2421358457448086E+00
C    2.2046766690745681E+01    1.3805484627155669E+01    4.4577301025662157E+00
C    2.2751718236827003E+01    1.5032445583223884E+01    4.5571431928927408E+00
C    2.4202985688748615E+01    1.5015662409731446E+01    4.5277392690495359E+00
C    2.0611533303867969E+01    1.6249474740049504E+01    4.4314089133884123E+00
C    2.2032329275117863E+01    1.6265526611897169E+01    4.5914866816053701E+00
C    2.2757231501324519E+01    1.7480315630118653E+01    4.5754818915904032E+00
C    2.4173982585662198E+01    1.7490550754785563E+01    4.6536391701712345E+00
C    2.0616304931071014E+01    1.8723723776080188E+01    4.4668017628709231E+00
C    2.2056926901480235E+01    1.8734912203721226E+01    4.5663153280115711E+00
C    2.2729084527512192E+01    1.9977339732828089E+01    4.7236199984049545E+00
C    2.4146519492183714E+01    1.9959851644715496E+01    4.8145775938665256E+00
C    2.0615085624354766E+01    2.1184019269742922E+01    4.3552346551381991E+00
C    2.2011984966485358E+01    2.1255938599297341E+01    4.5666570473638739E+00
C    2.2737114249507488E+01    1.0086400756917762E+01    4.5387565270894985E+00
C    2.4189252246275835E+01    1.0060667990337512E+01    4.6022581797254283E+00
C    1.2047426118662184E+01    2.3627222707899239E+01    4.2799945757582716E+00
C    1.3482989426010358E+01    2.3631827190098907E+01    4.1447791488581975E+00
C    1.4235576194368864E+01    2.4856725498875335E+01    4.1683156245355546E+00
C    1.5643114140347739E+01    2.4840842531370555E+01    4.2131655266204557E+00
C    1.2035080032752301E+01    2.6088949614416528E+01    4.2847619996141573E+00
C    1.3459970346087150E+01    2.6067486283461744E+01    4.3149211300816406E+00
C    1.4154635901844678E+01    2.7309618365886113E+01    4.4217857325487886E+00
C    1.5602102085682450E+01    2.7342567504775417E+01    4.4144438891945805E+00
C    1.2017716585239171E+01    2.8559215203535111E+01    4.3433627211007284E+00
C    1.3443396248474960E+01    2.8581766294254603E+01    4.4309765016685780E+00
C    1.4154166047127170E+01    2.9813310682537619E+01    4.4642717438731019E+00
C    1.5620732709705466E+01    2.9825505347139586E+01    4.4888481183851727E+00
C    1.2037215365421222E+01    3.1030805460136534E+01    4.3816832449337362E+00
C    1.3448188154946305E+01    3.1031278011247284E+01    4.4395274808045029E+00
C    1.4191895391315597E+01    3.2272320237953600E+01    4.4556479292568145E+00
C    1.5601437137307842E+01    3.2288928106410211E+01    4.4378409895806445E+00
C    1.2036802311222537E+01    3.3503973071369671E+01    4.4554573676480151E+00
C    1.3475587578725731E+01    3.3506906995396264E+01    4.4175762768172282E+00
C    1.4180876214609494E+01    2.2402369183039504E+01    4.0813747457372926E+00
C    1.5638941701345113E+01    2.2367265630728586E+01    4.1377371745274187E+00
C    1.6382825229070249E+01    2.3578536574934105E+01    4.1984063160447667E+00
C    1.7807321387456717E+01    2.3620404053338003E+01    4.2607072456868060E+00
C    1.8490174512830368E+01    2.4877793804057589E+01    4.2868277979118083E+00
C    1.9904887742708251E+01    2.4867098873710965E+01    4.4600934501943126E+00
C    1.6352791131932509E+01    2.6055107574815512E+01    4.3811560054089638E+00
C    1.7763502374381638E+01    2.6100775539960267E+01    4.4279179818724588E+00
C    1.8413776897542121E+01    2.7319538211372318E+01    4.3908256413192621E+00
C    1.9862528469319027E+01    2.7313502793573338E+01    4.4232876149794027E+00
C    1.6294313818589995E+01    2.8550607523500055E+01    4.4318318887995689E+00
C    1.7736236321698957E+01    2.8533251216849735E+01    4.3710899318366252E+00
C    1.8419336124050083E+01    2.9793421114442641E+01    4.3748222131866896E+00
C    1.9870144139337878E+01    2.9805991278718519E+01    4.3664894991733441E+00
C    1.6287526212726874E+01    3.1040530359225812E+01    4.4306512980557979E+00
C    1.7714142636708186E+01    3.1025053924417737E+01    4.3253749754388036E+00
C    1.8411734342226595E+01    3.2236686743798074E+01    4.3319812741756323E+00
C    1.9818721101199589E+01    3.2301962185032650E+01    4.3518626884596090E+00
C    1.6282969441616515E+01    3.3474398337061672E+01    4.3139440389832799E+00
C    1.7715064097865554E+01    3.3494092339313781E+01    4.2620826737803288E+00
C    1.8511736903863785E+01    2.2362656300102259E+01    4.2462710991663863E+00
C    1.9937898892850491E+01    2.2387491615387699E+01    4.3173810630181615E+00
C    2.0620628274050222E+01    2.3651982408724770E+01    4.4715969349175930E+00
C    2.2056678665133596E+01    2.3701485288856102E+01    4.5372174446736668E+00
C    2.2783928922027844E+01    2.4912145561731812E+01    4.5548451978961184E+00
C    2.4206612442581935E+01    2.4904453082705388E+01    4.4831230462427607E+00
C    2.0592492383827871E+01    2.6089773296298524E+01    4.5655166970747247E+00
C    2.2021141304009564E+01    2.6141726372889405E+01    4.5162362078091336E+00
C    2.2755507508870704E+01    2.7355154699886718E+01    4.4534202865365193E+00
C    2.4183996825366847E+01    2.7346225406970003E+01    4.4439479339567152E+00
C    2.0600638434282395E+01    2.8575514017349729E+01    4.3808822290991696E+00
C    2.1993205899968370E+01    2.8589219902059313E+01    4.4251336058583872E+00
C    2.2706045300471480E+01    2.9847667849160445E+01    4.5516235886670398E+00
C    2.4144439338761750E+01    2.9831072679028843E+01    4.5582156069445201E+00
C    2.0575190396608260E+01    3.1070183266348053E+01    4.4328467333433199E+00
C    2.1978546340043987E+01    3.1087373349861295E+01    4.5956111481583326E+00
C    2.2725638944288416E+01    3.2287672929610679E+01    4.6315491592812279E+00
C    2.4188027505789925E+01    3.2287252534279595E+01    4.6085593415898378E+00
C    2.0573084778315131E+01    3.3547940990591748E+01    4.4251802743070057E+00
C    2.2010580595618116E+01    3.3522837431285289E+01    4.5117128222778344E+00
C    2.2740318701478188E+01    2.2448739939279154E+01    4.6120614513860225E+00
C    2.4146655903900044E+01    2.2452286630915054E+01    4.7330980379253118E+00
O    2.7658265159185675E+02    1.9672631015900546E+02    1.9886319378433782E+01
H    2.7602115296785513E+02    1.9761700942468067E+02    1.9791918768657382E+01
H    2.7600484647514440E+02    1.9614817539227954E+02    2.0371700213490229E+01
O    1.7966035896841296E+02    1.6060324669461653E+02    1.0446476977127492E+01
H    1.7884417542993216E+02    1.6123012498166128E+02    1.0303866264323480E+01
H    1.7944622019469142E+02    1.5961664517037843E+02    1.0491896008264908E+01
O    1.1975821243716425E+02    2.7486917859955463E+02    1.8115032058892844E+01
H    1.1977628185619606E+02    2.7424440293586838E+02    1.7361546790415741E+01
H    1.2006355927938313E+02    2.7432217789860528E+02    1.8887866714161675E+01
O    2.7029466946599746E+02    2.4549482725550692E+02    2.1927068860230769E+01
H    2.6992219189215382E+02    2.4609779925604315E+02    2.2671186919534147E+01
H    2.7106853855724540E+02    2.4599445261541038E+02    2.1438105516987967E+01
O    2.0383388323405285E+02    2.2033982528267154E+02    7.9230674059286637E+00
H    2.0342991327039275E+02    2.2116818301322982E+02    8.2327804849982797E+00
H    2.0454119306181647E+02    2.2064231471797441E+02    7.3169581512007680E+00
O    1.6668666256346012E+02    2.8373268601356676E+02    1.6442573330372721E+01
H    1.6765301407600631E+02    2.8366999135601185E+02    1.6140958116262009E+01
H    1.6638337376354653E+02    2.8281747789742923E+02    1.6838929921616835E+01
O    1.8856126878640316E+02    2.9110077120439939E+02    9.9496018834509421E+00
H    1.8775222917004339E+02    2.9082124502094257E+02    9.4551391989461298E+00
H    1.8883712696668576E+02    2.9206598854018512E+02    9.7354998699881445E+00
O    2.0739927384877706E+02    1.3336564765514632E+02    1.8162042199437412E+01
H    2.0683931791291522E+02    1.3373234217116598E+02    1.7441105080310965E+01
H    2.0828807822414441E+02    1.3321801453447478E+02    1.7866019921088231E+01
O    1.3268901330681700E+02    2.4984027370149664E+02    1.0372254375483500E+01
H    1.3240837266374595E+02    2.5075884575608313E+02    1.0516909794128205E+01
H    1.3298718306283104E+02    2.4994985205033325E+02    9.4338495543244179E+00
O    2.5231775854314409E+02    3.2130911046547249E+02    1.2443507478899871E+01
H    2.5181339840085732E+02    3.2085128246561470E+02    1.3110936218857471E+01
H    2.5194726523280031E+02    3.2100134358169089E+02    1.1590847488640286E+01
O    1.2876910086362915E+02    3.0544600803767906E+02    7.8774105773127436E+00
H    1.2827247878496829E+02    3.0560187021122215E+02    8.7706260122966135E+00
H    1.2963883360454136E+02    3.0578954390128075E+02    8.2023021271074033E+00
O    1.6484586421534249E+02    2.9272235192164396E+02    1.2615899584382641E+01
H    1.6470818580075368E+02    2.9353224837664050E+02    1.3112828642681096E+01
H    1.6533887678845838E+02    2.9209045506744815E+02    1.3221612144015177E+01
O    1.7357958897526183E+02    2.1644407664219983E+02    1.0316180825650674E+01
H    1.7439010341926311E+02    2.1693685910927709E+02    1.0608675390789619E+01
H    1.7373980745137774E+02    2.1552627547680879E+02    1.0645441341592262E+01
O    2.3636352331458585E+02    1.6403276550840698E+02    1.4033474770082698E+01
H    2.3705939440091282E+02    1.6390183244721686E+02    1.3314391723815016E+01
H    2.3686940101799732E+02    1.6367498645227028E+02    1.4858090642814389E+01
O    1.4833844140454246E+02    4.4925416542144251E+02    2.0653833565067149E+01
H    1.4876276011034000E+02    4.4997919012945738E+02    2.1141158962730053E+01
H    1.4881145227131046E+02    4.4884641576274419E+02    1.9918656889631553E+01
O    1.8751343120059238E+02    3.2009979213722983E+02    2.2975820211376732E+01
H    1.8718687266981308E+02    3.2068556689999400E+02    2.3701409909421582E+01
H    1.8756044510202264E+02    3.1914403635187972E+02    2.3344251628042173E+01
O    1.7251595197795297E+02    3.0869147832990893E+02    1.1826694229250000E+01
H    1.7242568817221255E+02    3.0945209638509613E+02    1.1185919807090023E+01
H    1.7272295959595854E+02    3.0907451829064689E+02    1.2703798352005331E+01
O    1.5533665235214593E+02    2.6257264766693351E+02    1.4677818675605220E+01
H    1.5547394265087848E+02    2.6167336787150100E+02    1.4333137513179398E+01
H    1.5436484538402203E+02    2.6259601584408563E+02    1.4792596896728517E+01
O    2.2269876142106099E+02    2.2197033980010585E+02    1.2974079188484643E+01
H    2.2277425782929291E+02    2.2298294054140933E+02    1.2939877513631254E+01