 # Version information for this restart file 
 # current date 2020-01-25 15:13:30.197
 # current working dir /scratch/snx3000/gtocci/gtocci/MEMBRANES/AIMD_US_IONS_BN/aimd_us_iodide/us_28
 # Program compiled at                              Fri Nov 22 15:19:42 CET 2019
 # Program compiled on                                                  daint102
 # Program compiled for                                   CRAY_XC50-gfortran_gpu
 # Source code revision number                                       git:a698b45
 &GLOBAL
   PRINT_LEVEL  LOW
   PROJECT_NAME BNS
   RUN_TYPE  MD
   WALLTIME 86400
 &END GLOBAL
 &MOTION
   &MD
     ENSEMBLE  NVT
     STEPS  2000
     TIMESTEP     9.9999999999999989E-01
     STEP_START_VAL  41347
     TIME_START_VAL     4.1346999999990141E+04
     ECONS_START_VAL    -8.4829242006222630E+03
     TEMPERATURE     3.0000000000000000E+02
     TEMP_KIND  T
     &BAROSTAT
       PRESSURE     1.0000000000000000E+00
       TIMECON     9.9999999999999986E+01
       VIRIAL  Z
     &END BAROSTAT
     &THERMOSTAT
       TYPE  NOSE
       REGION  GLOBAL
       &NOSE
         LENGTH  4
         TIMECON     9.9999999999999986E+01
         MTS  2
         &COORD
               3.2016254824529966E-01   -4.0671405626723228E+01    4.0173569528241188E+01    7.4162167684733173E+00
         &END COORD
         &VELOCITY
              -1.6623192428592426E-06   -3.6105231706516411E-04   -1.5715773932662019E-04   -3.2013314704969643E-04
         &END VELOCITY
         &MASS
               7.0145132684705392E+07    1.6237299232570693E+04    1.6237299232570693E+04    1.6237299232570693E+04
         &END MASS
         &FORCE
              -2.6875403376532095E-09   -4.6572535104526926E-08    7.1848761808018732E-08   -3.3811458819851162E-08
         &END FORCE
       &END NOSE
     &END THERMOSTAT
     &AVERAGES  T
       &RESTART_AVERAGES
         ITIMES_START  1
         AVECPU     2.3860978120088106E+01
         AVEHUGONIOT     0.0000000000000000E+00
         AVETEMP_BARO     0.0000000000000000E+00
         AVEPOT    -8.4857793140914473E+03
         AVEKIN     2.0548888467518447E+00
         AVETEMP     3.0040824169571709E+02
         AVEKIN_QM     0.0000000000000000E+00
         AVETEMP_QM     0.0000000000000000E+00
         AVEVOL     2.2086622704880981E+05
         AVECELL_A     4.9287836997924984E+01
         AVECELL_B     4.7426456757032106E+01
         AVECELL_C     9.4486306644279694E+01
         AVEALPHA     9.0000000000000000E+01
         AVEBETA     9.0000000000000000E+01
         AVEGAMMA     9.0000000000000000E+01
         AVE_ECONS     4.8592163802086837E+01
         AVE_PRESS     0.0000000000000000E+00
         AVE_PXX     0.0000000000000000E+00
       &END RESTART_AVERAGES
     &END AVERAGES
     &PRINT
       &TEMP_KIND  SILENT
       &END TEMP_KIND
     &END PRINT
   &END MD
   &FREE_ENERGY
     &METADYN
       MIN_DISP    -1.0000000000000000E+00
       OLD_HILL_NUMBER  0
       OLD_HILL_STEP  0
       DO_HILLS  F
       STEP_START_VAL  41347
       NHILLS_START_VAL  0
       &METAVAR
         SCALE     1.0000000000000000E+00
         COLVAR  1
       &END METAVAR
       &PRINT
         &COLVAR  SILENT
           COMMON_ITERATION_LEVELS  3
           &EACH
             MD  1
           &END EACH
         &END COLVAR
       &END PRINT
     &END METADYN
   &END FREE_ENERGY
   &CONSTRAINT
     &COLLECTIVE
       COLVAR  1
       INTERMOLECULAR  T
       &RESTRAINT
         K     4.4625385281452931E-04
       &END RESTRAINT
     &END COLLECTIVE
     &COLVAR_RESTART
           2.6678499604351227E+01
     &END COLVAR_RESTART
   &END CONSTRAINT
   &PRINT
     &TRAJECTORY  SILENT
       &EACH
         MD  1
       &END EACH
     &END TRAJECTORY
     &VELOCITIES  SILENT
       &EACH
         MD  1
       &END EACH
     &END VELOCITIES
     &FORCES  SILENT
       UNIT eV*angstrom^-1
       &EACH
         MD  1
       &END EACH
     &END FORCES
     &RESTART  SILENT
       &EACH
         MD  1
       &END EACH
     &END RESTART
     &RESTART_HISTORY  SILENT
       &EACH
         MD  100
       &END EACH
     &END RESTART_HISTORY
   &END PRINT
 &END MOTION
 &FORCE_EVAL
   METHOD  QS
   &DFT
     BASIS_SET_FILE_NAME /users/gtocci/scratch_daint_3000/data_cp2k//BASIS_MOLOPT
     POTENTIAL_FILE_NAME /users/gtocci/scratch_daint_3000/data_cp2k//GTH_POTENTIALS
     WFN_RESTART_FILE_NAME ./BNS-RESTART.wfn
     CHARGE  -1
     &SCF
       MAX_SCF  10
       EPS_SCF     9.9999999999999995E-07
       SCF_GUESS  RESTART
       &OT  T
         MINIMIZER  DIIS
         PRECONDITIONER  FULL_KINETIC
       &END OT
       &OUTER_SCF  T
         EPS_SCF     9.9999999999999995E-07
         MAX_SCF  30
       &END OUTER_SCF
       &PRINT
         &RESTART  SILENT
           ADD_LAST  NUMERIC
           &EACH
             QS_SCF  50
           &END EACH
         &END RESTART
       &END PRINT
     &END SCF
     &QS
       MAP_CONSISTENT  T
       EXTRAPOLATION  ASPC
       EXTRAPOLATION_ORDER  4
     &END QS
     &MGRID
       NGRIDS  5
       CUTOFF     4.6000000000000000E+02
     &END MGRID
     &XC
       DENSITY_CUTOFF     1.0000000000000000E-10
       GRADIENT_CUTOFF     1.0000000000000000E-10
       TAU_CUTOFF     1.0000000000000000E-10
       &XC_GRID
         XC_DERIV  SPLINE2_SMOOTH
       &END XC_GRID
       &XC_FUNCTIONAL  NO_SHORTCUT
         &LIBXC  T
           FUNCTIONAL XC_GGA_X_OPTB88_VDW
         &END LIBXC
         &VWN  T
         &END VWN
       &END XC_FUNCTIONAL
       &VDW_POTENTIAL
         POTENTIAL_TYPE  NON_LOCAL
         &NON_LOCAL
           TYPE  DRSLL
           VERBOSE_OUTPUT  T
           KERNEL_FILE_NAME /users/gtocci/scratch_daint_3000/data_cp2k//vdW_kernel_table.dat
           CUTOFF     3.6000000000000000E+02
         &END NON_LOCAL
       &END VDW_POTENTIAL
     &END XC
     &REAL_TIME_PROPAGATION
       INITIAL_WFN  SCF_WFN
     &END REAL_TIME_PROPAGATION
     &PRINT
       &MULLIKEN  SILENT
         FILENAME =BNS.mulliken
       &END MULLIKEN
     &END PRINT
   &END DFT
   &SUBSYS
     &CELL
       A     2.6082000000000019E+01    0.0000000000000000E+00    0.0000000000000000E+00
       B     0.0000000000000000E+00    2.5097000000000001E+01    0.0000000000000000E+00
       C     0.0000000000000000E+00    0.0000000000000000E+00    5.0000000000000028E+01
       MULTIPLE_UNIT_CELL  1 1 1
     &END CELL
     &COORD
B   -1.1683044970621626E+01    1.2024286393569545E+01   -1.7412620618931793E+01
B   -9.4592177578849839E+00    1.3254512273381614E+01   -1.7267282502526310E+01
B   -1.1684978771482921E+01    1.4561014766195896E+01   -1.7323193372675725E+01
B   -9.4908271210760553E+00    1.5747504889060826E+01   -1.7208547222493589E+01
B   -1.1663847379658083E+01    1.7041465422723302E+01   -1.7112402106042435E+01
B   -9.4585679154631759E+00    1.8260784679542237E+01   -1.7272157946374524E+01
B   -1.1665275092574172E+01    1.9505813044426386E+01   -1.7174117580489217E+01
B   -9.5242835924916989E+00    2.0752346589545795E+01   -1.7454208828922038E+01
B   -1.1652674270613058E+01    2.1955630232077350E+01   -1.7314202889048545E+01
B   -9.5541443743472101E+00    2.3275288308000786E+01   -1.7577274824414431E+01
B   -7.3143050513119769E+00    1.1978089554185964E+01   -1.7378824079609203E+01
B   -5.1692985144828114E+00    1.3282862746795205E+01   -1.7406994537852700E+01
B   -7.3415281015013623E+00    1.4547306340063487E+01   -1.7207060509572894E+01
B   -5.1420931829458683E+00    1.5874502808873407E+01   -1.7365673372696595E+01
B   -7.2952070202081991E+00    1.7093500164418916E+01   -1.7241216755486317E+01
B   -5.1108425585912078E+00    1.8333073562299610E+01   -1.7496707448452685E+01
B   -7.3120461241416770E+00    1.9551264522893224E+01   -1.7488868050415181E+01
B   -5.1163698218017251E+00    2.0806453054869159E+01   -1.7636601778115171E+01
B   -7.3790901736966505E+00    2.2057304847903513E+01   -1.7674826703706501E+01
B   -5.2090367846008609E+00    2.3265514900507259E+01   -1.7682959339190226E+01
B   -3.0062789263045935E+00    1.1996312314319230E+01   -1.7368225760313642E+01
B   -7.9060633405795278E-01    1.3233647841268887E+01   -1.7438008077673516E+01
B   -2.9721961629714277E+00    1.4574567358635781E+01   -1.7397434352884982E+01
B   -7.7645372961388681E-01    1.5781619349799332E+01   -1.7622573204075746E+01
B   -2.9720266471001162E+00    1.7008761603090878E+01   -1.7591712042037653E+01
B   -7.7584550354991300E-01    1.8247876683115170E+01   -1.7563926835109594E+01
B   -2.9293444386640295E+00    1.9486188388655275E+01   -1.7479146563665562E+01
B   -8.2241817912381954E-01    2.0812785321497557E+01   -1.7595931540453559E+01
B   -2.9804447096134910E+00    2.2038266769760366E+01   -1.7695492424317457E+01
B   -8.3506332815708340E-01    2.3220711002901737E+01   -1.7784927458285100E+01
N   -1.0209833408000286E+01    1.2026356528940362E+01   -1.7346855858414781E+01
N   -7.9881677681993137E+00    1.3272160195791640E+01   -1.7309261367329128E+01
N   -1.0223463609225984E+01    1.4498284826197986E+01   -1.7260020379327617E+01
N   -8.0546351740567008E+00    1.5777087133840139E+01   -1.7100690688301263E+01
N   -1.0174332748431043E+01    1.7042469254404953E+01   -1.7242647218436829E+01
N   -8.0467269960538843E+00    1.8295737844848389E+01   -1.7415714637471467E+01
N   -1.0234057552690611E+01    1.9497758927718664E+01   -1.7347493700308267E+01
N   -8.0551238290774201E+00    2.0772776992767636E+01   -1.7670454457122879E+01
N   -1.0201877391129207E+01    2.2044322497862360E+01   -1.7421369756199883E+01
N   -8.0811220273366668E+00    2.3308191915486333E+01   -1.7606815659505422E+01
N   -5.8658805207188296E+00    1.1986539797260429E+01   -1.7359448538558897E+01
N   -3.7305531269117900E+00    1.3285321103381781E+01   -1.7479029446608020E+01
N   -5.8621040826723041E+00    1.4556496555141386E+01   -1.7286510532597962E+01
N   -3.6418727793473065E+00    1.5799817279212569E+01   -1.7489543224843857E+01
N   -5.8582796888999651E+00    1.7086572943150522E+01   -1.7360389265858252E+01
N   -3.6640033410393347E+00    1.8269354451561291E+01   -1.7600746539253930E+01
N   -5.8355538272241718E+00    1.9535684729339682E+01   -1.7566922318779870E+01
N   -3.6672771491807352E+00    2.0775802649981447E+01   -1.7569158703691155E+01
N   -5.9178434227491650E+00    2.2021546535404905E+01   -1.7601991703651990E+01
N   -3.7510126373735675E+00    2.3248268284671422E+01   -1.7740041915660626E+01
N   -1.5178881852559800E+00    1.1956270723565179E+01   -1.7483902322122109E+01
N    6.8140177096328658E-01    1.3219004507992757E+01   -1.7492486869528662E+01
N   -1.5163144383424429E+00    1.4560484698249470E+01   -1.7422326843603464E+01
N    7.0067829784064661E-01    1.5736941423603314E+01   -1.7530650374944237E+01
N   -1.5082790407009932E+00    1.6998090996522226E+01   -1.7706839286104000E+01
N    6.9821329627761297E-01    1.8199358224287078E+01   -1.7557389983787957E+01
N   -1.5411226136105358E+00    1.9514244175526251E+01   -1.7530062551195879E+01
N    6.2554003488836796E-01    2.0720329124480113E+01   -1.7686441008274358E+01
N   -1.5481713356618894E+00    2.2045575637592250E+01   -1.7544793646889438E+01
N    6.1656086464519477E-01    2.3233413351436319E+01   -1.7650678730405925E+01
B   -1.1694716694190356E+01    2.4445427469758023E+01   -1.7664816152813962E+01
B   -9.5521037599930469E+00    2.5797628974796844E+01   -1.7902223704907254E+01
B   -1.1726074941752559E+01    2.7002800051175186E+01   -1.7755775430640828E+01
B   -9.5283706150147882E+00    2.8376394435733637E+01   -1.8022430706422234E+01
B   -1.1744470395116325E+01    2.9568507213198352E+01   -1.7736262568818169E+01
B   -9.5369681016246108E+00    3.0867487345460127E+01   -1.7734935942275197E+01
B   -1.1716087877565025E+01    3.2077878600400055E+01   -1.7548451814874451E+01
B   -9.5471764989255430E+00    3.3355252050139441E+01   -1.7567340698071138E+01
B   -1.1675425814388452E+01    3.4598565452447772E+01   -1.7472646594651501E+01
B   -9.5408043957199968E+00    3.5837517989870861E+01   -1.7383137503061064E+01
B   -7.3901509507405736E+00    2.4578794754967063E+01   -1.7686653097833997E+01
B   -5.2418302071711391E+00    2.5808331278352238E+01   -1.7834584253228428E+01
B   -7.3655181863223556E+00    2.7073731451006022E+01   -1.7883554315750754E+01
B   -5.2272943595561312E+00    2.8380046769876191E+01   -1.7961340589379837E+01
B   -7.2998686858335287E+00    2.9629551689587014E+01   -1.7889786754973915E+01
B   -5.1794898858374259E+00    3.0867625796040272E+01   -1.7834260279801192E+01
B   -7.3651641571042914E+00    3.2117504462653685E+01   -1.7671960759079159E+01
B   -5.1691631530581930E+00    3.3302552246768734E+01   -1.7601659969977401E+01
B   -7.3034854635183404E+00    3.4596287616646137E+01   -1.7511998023925980E+01
B   -5.1448524786516332E+00    3.5823383809945618E+01   -1.7386361213668657E+01
B   -2.9630419365674832E+00    2.4544884742757699E+01   -1.7878712014833322E+01
B   -7.7340627324017075E-01    2.5743044714547246E+01   -1.7866592310996108E+01
B   -2.9918282863617836E+00    2.7025463054633573E+01   -1.7916984603178513E+01
B   -7.4416287322980357E-01    2.8266906286978646E+01   -1.7906998868872083E+01
B   -3.0295458399454467E+00    2.9546237265683942E+01   -1.7985137630131074E+01
B   -7.6874774344916075E-01    3.0725939976789807E+01   -1.7597592699681570E+01
B   -2.9643482428447414E+00    3.2072209421963322E+01   -1.7650548267463581E+01
B   -7.7826321034752344E-01    3.3261111796632711E+01   -1.7449066646507841E+01
B   -2.9339733925605040E+00    3.4567169675115963E+01   -1.7425462277436782E+01
B   -7.3640032713599946E-01    3.5820376892125921E+01   -1.7387294377151612E+01
N   -1.0180899318071406E+01    2.4551252435787593E+01   -1.7742265634684408E+01
N   -8.1289173772341652E+00    2.5835802131525046E+01   -1.7937708245581206E+01
N   -1.0248479033415654E+01    2.7043807888518316E+01   -1.7947689393585819E+01
N   -8.0280762134857877E+00    2.8389432806023809E+01   -1.7971236244793470E+01
N   -1.0286878086709267E+01    2.9583486220611469E+01   -1.7938447170716511E+01
N   -8.1272751462453083E+00    3.0888962750959369E+01   -1.7888837502916324E+01
N   -1.0272539739164033E+01    3.2132668806043057E+01   -1.7659689096277560E+01
N   -8.0945968567337516E+00    3.3346719368851062E+01   -1.7623535692397837E+01
N   -1.0239061008189188E+01    3.4623789992367605E+01   -1.7464608695048838E+01
N   -8.0730846041882653E+00    3.5848509288957317E+01   -1.7342575275259044E+01
N   -5.9544793153864362E+00    2.4582446046779836E+01   -1.7745456260502294E+01
N   -3.7280778560898304E+00    2.5801449121601603E+01   -1.7754375073864939E+01
N   -5.8728382090861597E+00    2.7117727050747749E+01   -1.7889426544274237E+01
N   -3.7215550142541782E+00    2.8309396529139434E+01   -1.8017479746110126E+01
N   -5.9224933984590900E+00    2.9598446394194927E+01   -1.7835831659328331E+01
N   -3.7061056999579494E+00    3.0870139594413068E+01   -1.7865613029131410E+01
N   -5.8760303918258483E+00    3.2093887083759043E+01   -1.7714472652041731E+01
N   -3.7001681106085891E+00    3.3308051917809550E+01   -1.7497189093639577E+01
N   -5.8499943251409174E+00    3.4567893433668289E+01   -1.7462283586945929E+01
N   -3.6835768513650029E+00    3.5826876302976203E+01   -1.7323603879448697E+01
N   -1.5484013910674357E+00    2.4503359181146667E+01   -1.8040125690788511E+01
N    6.9732690053449498E-01    2.5735050349910622E+01   -1.7682991078057547E+01
N   -1.5081783304408065E+00    2.7028101921177978E+01   -1.7989314584522415E+01
N    6.7364910697544922E-01    2.8255413215298088E+01   -1.7734666906332283E+01
N   -1.5225956298401941E+00    2.9521052201195037E+01   -1.7842061705247637E+01
N    6.2261609997072254E-01    3.0697019575657155E+01   -1.7243687172906455E+01
N   -1.5249737640997534E+00    3.2020389267151380E+01   -1.7597982855844180E+01
N    6.3520589749829293E-01    3.3196320978504616E+01   -1.7453512475088463E+01
N   -1.4694470074575015E+00    3.4586023145006926E+01   -1.7359755856516550E+01
N    7.2911072983478342E-01    3.5813200803078566E+01   -1.7388818828006777E+01
B    1.4478245497709956E+00    1.1965734942597837E+01   -1.7529672254982582E+01
B    3.5661661710410955E+00    1.3196625540864813E+01   -1.7530458970459545E+01
B    1.4014580083452879E+00    1.4465763337493934E+01   -1.7532999157615986E+01
B    3.5861079859604676E+00    1.5687468866704521E+01   -1.7349115588902027E+01
B    1.4779415948417929E+00    1.6978988370904776E+01   -1.7546000331214522E+01
B    3.6226069114575812E+00    1.8204278282098112E+01   -1.7445026432835011E+01
B    1.3932539403671991E+00    1.9467790768337800E+01   -1.7531742539471729E+01
B    3.5615088344236461E+00    2.0676974433550409E+01   -1.7473388466247634E+01
B    1.3641049742817903E+00    2.1953311835768950E+01   -1.7682685231299203E+01
B    3.5118356779738553E+00    2.3232468188743709E+01   -1.7447013899772518E+01
B    5.7498218745782150E+00    1.1942339233835170E+01   -1.7260662021390672E+01
B    7.8651398997573994E+00    1.3192737953347576E+01   -1.7283260149339746E+01
B    5.8086347999774652E+00    1.4469001905236544E+01   -1.7191467178884285E+01
B    7.9504623633059399E+00    1.5727135778089318E+01   -1.7116065720374412E+01
B    5.7382875192468674E+00    1.6953751304677510E+01   -1.7250639666918438E+01
B    7.9541143997603170E+00    1.8244074110570359E+01   -1.7126055011158673E+01
B    5.7774800419392189E+00    1.9525642077865761E+01   -1.7322012590172978E+01
B    7.9169496862934903E+00    2.0765730494448039E+01   -1.7152343846886101E+01
B    5.6848511122649743E+00    2.1977244187535145E+01   -1.7323736886964660E+01
B    7.8895649200652587E+00    2.3227245377387622E+01   -1.7264457172882739E+01
B    1.0093755187021408E+01    1.1937195165623095E+01   -1.7365133775140496E+01
B    1.2196816087460775E+01    1.3229139961879559E+01   -1.7429876345470156E+01
B    1.0058156064262301E+01    1.4464080165253835E+01   -1.7266324176080303E+01
B    1.2229631646110541E+01    1.5747478987672142E+01   -1.7204287080657611E+01
B    1.0076899205791157E+01    1.7019893043325172E+01   -1.7161941548522968E+01
B    1.2233594216802446E+01    1.8267413288252722E+01   -1.7078110939817666E+01
B    1.0078237155371680E+01    1.9545449381231467E+01   -1.7150809594819819E+01
B    1.2282176198704281E+01    2.0806626814703769E+01   -1.7236211029997460E+01
B    1.0027957005421458E+01    2.2008106043875351E+01   -1.7223477799846499E+01
B    1.2176566510353505E+01    2.3275254403928866E+01   -1.7455746539614164E+01
N    2.8853378660363829E+00    1.1939792358439590E+01   -1.7571510555809891E+01
N    5.0172729595559664E+00    1.3236759738585187E+01   -1.7313691865683502E+01
N    2.8778683263314919E+00    1.4448551834457398E+01   -1.7407108701389383E+01
N    5.0414029355532755E+00    1.5727886675818613E+01   -1.7256942981713710E+01
N    2.8747465878820559E+00    1.6928875567242279E+01   -1.7437357213244432E+01
N    5.0800600574268824E+00    1.8229618923465566E+01   -1.7410793947253687E+01
N    2.8350391284702274E+00    1.9437677146901418E+01   -1.7460881813778943E+01
N    5.0086964625797981E+00    2.0754816602471031E+01   -1.7337544988515344E+01
N    2.8303382039355340E+00    2.1946856519734439E+01   -1.7594493223487284E+01
N    4.9205114510379362E+00    2.3215732057713623E+01   -1.7363677334484898E+01
N    7.1687344156041553E+00    1.1930557321472671E+01   -1.7233000604980553E+01
N    9.3566035322211931E+00    1.3175481052904928E+01   -1.7312783839929036E+01
N    7.2265181905016433E+00    1.4459063204270750E+01   -1.7226762259435798E+01
N    9.3666842173124554E+00    1.5739593989703312E+01   -1.7184137660175139E+01
N    7.1614214884135121E+00    1.6989482272743313E+01   -1.7161589013041095E+01
N    9.3935303953823244E+00    1.8261977579090601E+01   -1.7159333054525099E+01
N    7.2298842422437426E+00    1.9509087816516711E+01   -1.7181105404854602E+01
N    9.3310024293534308E+00    2.0776257740213822E+01   -1.7030928807638716E+01
N    7.1705938375033442E+00    2.1984941573038391E+01   -1.7196216129646576E+01
N    9.3354722560505348E+00    2.3243514370842831E+01   -1.7387309246627286E+01
N    1.1524907726614886E+01    1.1950826850056334E+01   -1.7454427446424784E+01
N    1.3670276697094989E+01    1.3292244008719875E+01   -1.7494852972685916E+01
N    1.1533421443639057E+01    1.4438496335721808E+01   -1.7320227854696757E+01
N    1.3686934831294547E+01    1.5814062527460433E+01   -1.7130922057822669E+01
N    1.1510633342906267E+01    1.7044571418705956E+01   -1.7235640653451799E+01
N    1.3684948064264113E+01    1.8274381204838956E+01   -1.6993604081057590E+01
N    1.1543533462339935E+01    1.9584744505394532E+01   -1.7094850134163984E+01
N    1.3709536306759382E+01    2.0728341827073997E+01   -1.7222508010304686E+01
N    1.1514911159662592E+01    2.2005809271407216E+01   -1.7268188385808642E+01
N    1.3687390836715890E+01    2.3195847346128325E+01   -1.7561973634935267E+01
B    1.3714513042064012E+00    2.4419170396173779E+01   -1.7596716337738741E+01
B    3.5343621695370624E+00    2.5711059788236444E+01   -1.7287461843948257E+01
B    1.4294832778373470E+00    2.7007121741702534E+01   -1.7614481516935459E+01
B    3.5297097560067447E+00    2.8198809524266327E+01   -1.7283410318352008E+01
B    1.3728787017303496E+00    2.9477483570775462E+01   -1.7490771323985797E+01
B    3.5480399990798532E+00    3.0730277095624800E+01   -1.7392704729277714E+01
B    1.3487377859629244E+00    3.1955365257516927E+01   -1.7312206944309509E+01
B    3.5858334708899253E+00    3.3208569837715125E+01   -1.7365342695206827E+01
B    1.4067336237831354E+00    3.4512048080348357E+01   -1.7413604957957922E+01
B    3.5502101630124718E+00    3.5755064303857857E+01   -1.7354352663352984E+01
B    5.6404114199878377E+00    2.4469432909860458E+01   -1.7275163543709706E+01
B    7.8593278124671428E+00    2.5730519220128471E+01   -1.7488976279112801E+01
B    5.7123639931963437E+00    2.6986069940073605E+01   -1.7223722183714525E+01
B    7.8677326870679121E+00    2.8221452293035959E+01   -1.7626855931334081E+01
B    5.7362274676309211E+00    2.9481959922145190E+01   -1.7272012221976460E+01
B    7.8399207310535610E+00    3.0755544385298442E+01   -1.7570052463050228E+01
B    5.6866335356871671E+00    3.1994147739653400E+01   -1.7333574621574609E+01
B    7.8089715327656455E+00    3.3210968678749765E+01   -1.7426002911155493E+01
B    5.6535142456496201E+00    3.4575276571236301E+01   -1.7379572326140238E+01
B    7.8520370040418905E+00    3.5707257757843472E+01   -1.7302137953346854E+01
B    1.0057545100909056E+01    2.4515983590827837E+01   -1.7433985145889459E+01
B    1.2215318027573977E+01    2.5730099962754078E+01   -1.7614205434145042E+01
B    1.0089064419892980E+01    2.7044770234148412E+01   -1.7590035177411011E+01
B    1.2185629599223136E+01    2.8288565929259782E+01   -1.7558377951473851E+01
B    1.0010153639634721E+01    2.9495145403754790E+01   -1.7623118458147946E+01
B    1.2168545466783092E+01    3.0788353584151089E+01   -1.7542198465845324E+01
B    9.9633544851153584E+00    3.1979299370668727E+01   -1.7447206303289004E+01
B    1.2152669439692685E+01    3.3332131416451610E+01   -1.7429905217810937E+01
B    1.0075847610191689E+01    3.4515133888301925E+01   -1.7273198358364702E+01
B    1.2235132627573524E+01    3.5807312013870551E+01   -1.7337619451268921E+01
N    2.7896997648584074E+00    2.4467071194097596E+01   -1.7531775643464957E+01
N    4.9533976426515958E+00    2.5758208329847076E+01   -1.7219840221080144E+01
N    2.8072007777777483E+00    2.6967779034420815E+01   -1.7398854287992467E+01
N    4.9914834088680919E+00    2.8263961211539584E+01   -1.7160914793369333E+01
N    2.7862224051502178E+00    2.9452194923567919E+01   -1.7383736929296028E+01
N    4.9839065979066310E+00    3.0724218426337782E+01   -1.7287245926340535E+01
N    2.8280906429568069E+00    3.1956859852099861E+01   -1.7400835261943051E+01
N    4.9702261641177481E+00    3.3256386066960957E+01   -1.7433824236241954E+01
N    2.8496480911224835E+00    3.4472469395256205E+01   -1.7452746375378393E+01
N    4.9755199755799255E+00    3.5803775586626756E+01   -1.7326369170977728E+01
N    7.1169695971653004E+00    2.4474836735198725E+01   -1.7269618021340360E+01
N    9.3171845689266934E+00    2.5753621686690082E+01   -1.7462913496955935E+01
N    7.1155316037385337E+00    2.6981755487766488E+01   -1.7485005514034512E+01
N    9.3303818723515732E+00    2.8234166411834465E+01   -1.7688357687870045E+01
N    7.1815911539964024E+00    2.9507866420255095E+01   -1.7555908816866090E+01
N    9.2990729810654287E+00    3.0737252910290714E+01   -1.7616114718806291E+01
N    7.1106155038447740E+00    3.1988287230082509E+01   -1.7490140565089984E+01
N    9.2413276250472958E+00    3.3237410172288108E+01   -1.7279783218252430E+01
N    7.0823796034417095E+00    3.4525056989795004E+01   -1.7268271862075697E+01
N    9.3422632376626051E+00    3.5767256273839791E+01   -1.7323578626786400E+01
N    1.1515567765967191E+01    2.4530743285857408E+01   -1.7477822601254353E+01
N    1.3680170186866713E+01    2.5707719321441960E+01   -1.7703548884702428E+01
N    1.1540250912195205E+01    2.6989524351328651E+01   -1.7525651877656045E+01
N    1.3661011637373948E+01    2.8263201454154423E+01   -1.7774962868638834E+01
N    1.1457608542538301E+01    2.9493822013853929E+01   -1.7552248618841919E+01
N    1.3596946089837900E+01    3.0799141733367058E+01   -1.7546706153426022E+01
N    1.1414380910101983E+01    3.2055894749781672E+01   -1.7518506373269073E+01
N    1.3643448393132696E+01    3.3332288996348964E+01   -1.7489319244971831E+01
N    1.1501959580296074E+01    3.4562010732971714E+01   -1.7385696295620171E+01
N    1.3699371695494364E+01    3.5831476216613126E+01   -1.7370951501144681E+01
O    2.8959679175236026E+01    1.3788040850216545E+01   -7.9091503972424926E+00
H    2.9231451806999928E+01    1.3184696472670797E+01   -7.1295901684200516E+00
H    2.8862744913020602E+01    1.3239753793348454E+01   -8.7157352642257937E+00
O    1.3936661924673835E+01   -6.9338622889854065E+01   -5.9378296740603504E+00
H    1.3128188465547678E+01   -6.9020457025318933E+01   -5.5259768973955570E+00
H    1.4426531394912647E+01   -6.9980031542835505E+01   -5.3518723544603715E+00
O    7.5620754303945247E+01   -6.2611856886349926E+01   -4.0361681962553836E-01
H    7.6011496824017954E+01   -6.2508327955859521E+01   -1.2541021056427080E+00
H    7.5583991593512209E+01   -6.1670692098073836E+01   -3.2905239285638828E-02
O   -1.5484364492921538E+01   -6.3778773058746346E+01   -1.4487584004487740E+01
H   -1.4663182891633454E+01   -6.3298213924419734E+01   -1.4266219472542820E+01
H   -1.5229720620272371E+01   -6.4709112857565600E+01   -1.4419284848694854E+01
O    5.2495268227509236E+01   -6.1666291593112540E+01   -9.8985118921178987E+00
H    5.2019315735688402E+01   -6.2370484781787880E+01   -9.3953093744267200E+00
H    5.1635883776912181E+01   -6.1380600074350085E+01   -1.0421082255162185E+01
O    5.5844315638447107E+01   -1.1897632632727468E+02   -4.7467853978730696E+00
H    5.6575027462448212E+01   -1.1859252657824193E+02   -5.3397424120303878E+00
H    5.5026943493814635E+01   -1.1830081681552049E+02   -4.8578322073224456E+00
O    1.5213965361296912E+01    4.5840814442350348E+00   -1.5001058683790188E+01
H    1.5345575870909569E+01    3.9698233076348917E+00   -1.4189970006737019E+01
H    1.6129168475142198E+01    4.6790780586481642E+00   -1.5304891449975640E+01
O    3.9277518376342087E+01   -4.0739541138497991E+01   -5.3199426476057301E+00
H    3.9206218959964708E+01   -4.0824832288742556E+01   -6.3419459677559402E+00
H    3.9118617998541730E+01   -3.9844022984077249E+01   -4.9911639793617084E+00
O   -2.6461730146850919E+00   -2.3270418294886962E+01   -7.9056398686487768E+00
H   -1.9017945867060773E+00   -2.3698843934177948E+01   -8.5286838186948817E+00
H   -2.2293165834074413E+00   -2.2490736173885509E+01   -7.4543205588937935E+00
O    5.1580715172783535E+01   -3.4923329268651382E+00   -4.9912789282465306E+00
H    5.1534389484413126E+01   -2.5194326812229333E+00   -5.2915416709506315E+00
H    5.2496800313037731E+01   -3.7828865926965873E+00   -5.1882569913673837E+00
O    4.6340077527698391E+01   -7.5725010847497273E+01   -2.0107857045604325E+00
H    4.6199383231399594E+01   -7.5082621540301261E+01   -1.3278530195182865E+00
H    4.7231452202987995E+01   -7.5940849419098043E+01   -2.2405974940223552E+00
O    2.9750646058452286E+01   -8.2140141523978443E+00   -1.0926201531699666E+01
H    2.9669603688541390E+01   -7.5473387436752581E+00   -1.1707556969447628E+01
H    2.8847280533658179E+01   -8.4848960722511269E+00   -1.0749658444859778E+01
O    1.0362883116139353E+02   -3.2561546702589645E+01   -1.4341639617722601E+01
H    1.0381031183440145E+02   -3.2554424231622519E+01   -1.3417807005914863E+01
H    1.0416438419676302E+02   -3.1814106345968792E+01   -1.4802006990949810E+01
O    6.5570192044225237E+01   -4.4389178283801073E+01   -2.7559967699992813E+00
H    6.5195174276708073E+01   -4.3669334251898803E+01   -3.4561309113460341E+00
H    6.6489487446243245E+01   -4.4213073665216022E+01   -2.6229474433135516E+00
O    1.8475096068529588E+01    7.9716501103379434E-01   -6.4959016940165659E+00
H    1.8808071784503479E+01    1.4746600806446666E+00   -5.8870385642839160E+00
H    1.8335172621131637E+01   -5.4251326784077056E-02   -6.0186721556055609E+00
O    2.5897264748191365E+01   -2.1392425649191686E+01   -1.0887604822442121E+01
H    2.5619002519841665E+01   -2.2313288354754096E+01   -1.1066151003423787E+01
H    2.6278285875047867E+01   -2.1500464604890961E+01   -9.8623784340924150E+00
O    8.7668794036887633E+01   -5.0814459787573114E+01   -9.7907812670964116E+00
H    8.8395739015261469E+01   -5.0559952505538305E+01   -1.0398320112719041E+01
H    8.6893642446572272E+01   -5.0433718708918732E+01   -1.0221526016141963E+01
O   -1.0684982880291621E+01   -1.5713889423020040E+01   -3.4091060201791041E+00
H   -1.0389035946377287E+01   -1.4949157216833232E+01   -3.9956636100055420E+00
H   -1.1495090332990760E+01   -1.6009850292364867E+01   -3.8345179203217090E+00
O    7.7803070775371964E+01    8.2483903971207457E+00   -1.4666711588818888E+01