 # Version information for this restart file 
 # current date 2019-01-28 05:12:51.080
 # current working dir /scratch/snx3000/gtocci/gtocci/MEMBRANES/AIMD_US_IONS_GRA/potassium/aimd_us_pot/us_29
 # Program compiled at                             Thu Oct 11 21:49:41 CEST 2018
 # Program compiled on                                                  daint104
 # Program compiled for                                   CRAY_XC50-gfortran_gpu
 # Source code revision number                                     git:be74c20a5
 &GLOBAL
   PRINT_LEVEL  LOW
   PROJECT_NAME GRAS
   RUN_TYPE  MD
   WALLTIME 10200
 &END GLOBAL
 &MOTION
   &MD
     ENSEMBLE  NVT
     STEPS  100000
     TIMESTEP     9.9999999999999989E-01
     STEP_START_VAL  40314
     TIME_START_VAL     4.0313999999991407E+04
     ECONS_START_VAL    -8.3206669756353112E+03
     TEMPERATURE     3.0000000000000000E+02
     TEMP_KIND  T
     &BAROSTAT
       PRESSURE     1.0000000000000000E+00
       TIMECON     9.9999999999999986E+01
       VIRIAL  Z
     &END BAROSTAT
     &THERMOSTAT
       TYPE  NOSE
       REGION  GLOBAL
       &NOSE
         LENGTH  4
         TIMECON     9.9999999999999986E+01
         MTS  2
         &COORD
               1.6009518134634015E-01    1.8737866840424381E+01   -5.7107962730512174E-01    4.5428236895301527E-01
         &END COORD
         &VELOCITY
              -8.1908257611616090E-06    2.0127352213181998E-04    1.0620074995496932E-04    5.2657070439415660E-05
         &END VELOCITY
         &MASS
               7.0145132684705392E+07    1.6237299232570693E+04    1.6237299232570693E+04    1.6237299232570693E+04
         &END MASS
         &FORCE
              -4.0897871198515102E-10    2.3131717327663630E-07   -1.7998983138756844E-08   -4.7231414559107153E-08
         &END FORCE
       &END NOSE
     &END THERMOSTAT
     &AVERAGES  T
       &RESTART_AVERAGES
         ITIMES_START  1
         AVECPU     4.6986360654910271E+01
         AVEHUGONIOT     0.0000000000000000E+00
         AVETEMP_BARO     0.0000000000000000E+00
         AVEPOT    -8.3232755524242857E+03
         AVEKIN     2.0543984060801299E+00
         AVETEMP     3.0033654320941406E+02
         AVEKIN_QM     0.0000000000000000E+00
         AVETEMP_QM     0.0000000000000000E+00
         AVEVOL     2.1331414786628154E+05
         AVECELL_A     4.8437460238125873E+01
         AVECELL_B     4.6608961231944583E+01
         AVECELL_C     9.4486306644279423E+01
         AVEALPHA     9.0000000000000057E+01
         AVEBETA     9.0000000000000057E+01
         AVEGAMMA     9.0000000000000057E+01
         AVE_ECONS    -1.2078829333852625E+00
         AVE_PRESS     0.0000000000000000E+00
         AVE_PXX     0.0000000000000000E+00
       &END RESTART_AVERAGES
     &END AVERAGES
     &PRINT
       &TEMP_KIND  SILENT
       &END TEMP_KIND
     &END PRINT
   &END MD
   &FREE_ENERGY
     &METADYN
       MIN_DISP    -1.0000000000000000E+00
       OLD_HILL_NUMBER  0
       OLD_HILL_STEP  0
       DO_HILLS  F
       STEP_START_VAL  40314
       NHILLS_START_VAL  0
       &METAVAR
         SCALE     1.0000000000000000E+00
         COLVAR  1
       &END METAVAR
       &PRINT
         &COLVAR  SILENT
           COMMON_ITERATION_LEVELS  3
           &EACH
             MD  1
           &END EACH
         &END COLVAR
       &END PRINT
     &END METADYN
   &END FREE_ENERGY
   &CONSTRAINT
     &COLLECTIVE
       COLVAR  1
       INTERMOLECULAR  T
       &RESTRAINT
         K     4.4625385281452931E-04
       &END RESTRAINT
     &END COLLECTIVE
     &COLVAR_RESTART
           2.7401028926841832E+01
     &END COLVAR_RESTART
   &END CONSTRAINT
   &PRINT
     &TRAJECTORY  SILENT
       &EACH
         MD  1
       &END EACH
     &END TRAJECTORY
     &VELOCITIES  SILENT
       &EACH
         MD  1
       &END EACH
     &END VELOCITIES
     &FORCES  SILENT
       UNIT eV*angstrom^-1
       &EACH
         MD  1
       &END EACH
     &END FORCES
     &RESTART  SILENT
       &EACH
         MD  1
       &END EACH
     &END RESTART
     &RESTART_HISTORY  SILENT
       &EACH
         MD  100
       &END EACH
     &END RESTART_HISTORY
   &END PRINT
 &END MOTION
 &FORCE_EVAL
   METHOD  QS
   &DFT
     BASIS_SET_FILE_NAME /users/gtocci/scratch_daint_3000/data_cp2k//BASIS_MOLOPT
     POTENTIAL_FILE_NAME /users/gtocci/scratch_daint_3000/data_cp2k//GTH_POTENTIALS
     WFN_RESTART_FILE_NAME ./GRAS-RESTART.wfn
     CHARGE  1
     &SCF
       MAX_SCF  10
       EPS_SCF     9.9999999999999995E-07
       SCF_GUESS  RESTART
       &OT  T
         MINIMIZER  DIIS
         PRECONDITIONER  FULL_KINETIC
       &END OT
       &OUTER_SCF  T
         EPS_SCF     9.9999999999999995E-07
         MAX_SCF  30
       &END OUTER_SCF
       &PRINT
         &RESTART  SILENT
           ADD_LAST  NUMERIC
           &EACH
             QS_SCF  50
           &END EACH
         &END RESTART
       &END PRINT
     &END SCF
     &QS
       MAP_CONSISTENT  T
       EXTRAPOLATION  ASPC
       EXTRAPOLATION_ORDER  4
     &END QS
     &MGRID
       NGRIDS  5
       CUTOFF     4.6000000000000000E+02
     &END MGRID
     &XC
       DENSITY_CUTOFF     1.0000000000000000E-10
       GRADIENT_CUTOFF     1.0000000000000000E-10
       TAU_CUTOFF     1.0000000000000000E-10
       &XC_GRID
         XC_DERIV  SPLINE2_SMOOTH
       &END XC_GRID
       &XC_FUNCTIONAL  NO_SHORTCUT
         &LIBXC  T
           FUNCTIONAL XC_GGA_X_OPTB88_VDW
         &END LIBXC
         &VWN  T
         &END VWN
       &END XC_FUNCTIONAL
       &VDW_POTENTIAL
         POTENTIAL_TYPE  NON_LOCAL
         &NON_LOCAL
           TYPE  DRSLL
           VERBOSE_OUTPUT  T
           KERNEL_FILE_NAME /users/gtocci/scratch_daint_3000/data_cp2k//vdW_kernel_table.dat
         &END NON_LOCAL
       &END VDW_POTENTIAL
     &END XC
     &REAL_TIME_PROPAGATION
       INITIAL_WFN  SCF_WFN
     &END REAL_TIME_PROPAGATION
     &PRINT
       &MULLIKEN  SILENT
         FILENAME =GRAS.mulliken
       &END MULLIKEN
     &END PRINT
   &END DFT
   &SUBSYS
     &CELL
       A     2.5632000000000001E+01    0.0000000000000000E+00    0.0000000000000000E+00
       B     0.0000000000000000E+00    2.4664400000000022E+01    0.0000000000000000E+00
       C     0.0000000000000000E+00    0.0000000000000000E+00    5.0000000000000028E+01
       MULTIPLE_UNIT_CELL  1 1 1
     &END CELL
     &COORD
C    3.1578894018587174E+00   -2.3554026620515334E+00   -2.3112798634013462E-01
C    4.5718664208995756E+00   -2.3268643988908222E+00   -4.0963519017132466E-01
C    5.3039450673578710E+00   -1.1103928568541930E+00   -4.3831966214631141E-01
C    6.7199496078696290E+00   -1.1195442652594594E+00   -4.5458100327282674E-01
C    3.1466849606485523E+00    7.1698472257305773E-02   -3.0883415574372430E-01
C    4.5551261640969427E+00    1.1176288715698117E-01   -4.0588867458300848E-01
C    5.3296287736282402E+00    1.3449378792412878E+00   -4.1117456317245876E-01
C    6.7409731072754271E+00    1.3239885675538530E+00   -3.9224069284366336E-01
C    3.1541347605355359E+00    2.5313082162511265E+00   -4.9384374867600156E-01
C    4.5748716772646780E+00    2.5518827140489009E+00   -4.9384721921876895E-01
C    5.2996022225818411E+00    3.7914422747026677E+00   -4.2291097461789107E-01
C    6.7254904847496926E+00    3.7723321347845507E+00   -3.9844269053432108E-01
C    3.2128561918388434E+00    4.9886721735831880E+00   -5.8122252228406412E-01
C    4.6149525766439741E+00    5.0342252826065801E+00   -4.7106977282745222E-01
C    5.3460237406035871E+00    6.2926398424521004E+00   -4.6350707150876796E-01
C    6.7493515356733340E+00    6.2683803987246964E+00   -4.7360488715762461E-01
C    3.2236740952773921E+00    7.5159470683640253E+00   -6.1446995381914737E-01
C    4.6327839844818506E+00    7.5421828810500262E+00   -4.7732877947970387E-01
C    5.2742822420222879E+00   -3.5778523847574988E+00   -4.5337954208691805E-01
C    6.7001764611414547E+00   -3.5921527413638232E+00   -4.8120256754771507E-01
C    7.4429220909502947E+00   -2.3905998672845832E+00   -4.2812718328580013E-01
C    8.8961752169859594E+00   -2.3813826236426792E+00   -4.3082190484506988E-01
C    9.6032754941482388E+00   -1.1360403650615774E+00   -4.3931872638722430E-01
C    1.0994900010344384E+01   -1.1403160905115861E+00   -6.3629711648849496E-01
C    7.4349471462887680E+00    8.9757641610977754E-02   -3.6672196931244960E-01
C    8.8673075900219303E+00    8.1822861081163753E-02   -3.3505934463635223E-01
C    9.5810943299879519E+00    1.3039629119105833E+00   -3.6317339794310510E-01
C    1.1005929666300625E+01    1.2974061067864100E+00   -5.7331948711846825E-01
C    7.4658856594707252E+00    2.5707337356247897E+00   -3.5836957940630715E-01
C    8.8804470618768274E+00    2.5435169532568223E+00   -3.6444544833942988E-01
C    9.5903413090744234E+00    3.7504095614047097E+00   -4.7364548722044797E-01
C    1.1003750730326981E+01    3.7543378589039653E+00   -5.1525615253395585E-01
C    7.4346058068835532E+00    5.0087371612104992E+00   -4.8543764309291931E-01
C    8.8769530725601626E+00    4.9758970451407496E+00   -5.3686103624130022E-01
C    9.5595072557492600E+00    6.2139902358512238E+00   -5.7927216031736317E-01
C    1.0990790826345487E+01    6.2313045093855939E+00   -5.1217965937204757E-01
C    7.4752456909901088E+00    7.4873772671320653E+00   -4.9715487996801322E-01
C    8.8828719721825351E+00    7.4826880263588720E+00   -5.4664474570112442E-01
C    9.5714685434656275E+00   -3.5581186751377252E+00   -6.0880378058758888E-01
C    1.1014471328583086E+01   -3.6114684077944079E+00   -7.3861536345554901E-01
C    1.1720156876052025E+01   -2.3727255567195025E+00   -7.4261521289737420E-01
C    1.3174831734358925E+01   -2.3597087819418037E+00   -8.4124113634364583E-01
C    1.3865063955820872E+01   -1.0972328103772753E+00   -9.0225278716364044E-01
C    1.5273294842936108E+01   -1.1069927519078322E+00   -7.7193060536758640E-01
C    1.1688140810634938E+01    7.6762002653383621E-02   -7.1717003584322014E-01
C    1.3100123005936647E+01    1.0328719822608655E-01   -8.3275833214210826E-01
C    1.3828464507863696E+01    1.3140958684413404E+00   -7.9185044356266876E-01
C    1.5268653603205095E+01    1.3251511464158088E+00   -7.9419618747011400E-01
C    1.1705746533303280E+01    2.5343064533873823E+00   -5.9761952272654117E-01
C    1.3102410395150953E+01    2.5488987942257828E+00   -6.8880630997826853E-01
C    1.3826102774946587E+01    3.8125720491786814E+00   -7.0157418257394955E-01
C    1.5244980915306741E+01    3.7900228799130122E+00   -7.2458416347078836E-01
C    1.1687382343451601E+01    4.9691941542895686E+00   -5.4775275101270693E-01
C    1.3131407980537871E+01    5.0267323304759648E+00   -6.0709342202173411E-01
C    1.3818357708490719E+01    6.2535590760853701E+00   -5.4500224394503216E-01
C    1.5268377502183156E+01    6.2303349189627468E+00   -5.8144959201843449E-01
C    1.1722471318276151E+01    7.4937148687596684E+00   -5.1559621666813971E-01
C    1.3137431127947380E+01    7.5052537558899859E+00   -4.7300942120694794E-01
C    1.3834850147566780E+01   -3.6227168090248703E+00   -8.4518330571469058E-01
C    1.5255234090130415E+01   -3.5704845339137785E+00   -6.5137384719409153E-01
C    3.2042948610992212E+00    9.9863037018563805E+00   -6.8972822624293673E-01
C    4.6171839789374198E+00    9.9658427835539598E+00   -6.4500259708909458E-01
C    5.3373644960126025E+00    1.1154085158499605E+01   -6.3449018969575932E-01
C    6.7338760475846282E+00    1.1200146000760954E+01   -7.0131334329276318E-01
C    3.1372580102225802E+00    1.2419232526120604E+01   -5.1081497125679542E-01
C    4.5716587480849498E+00    1.2430600920835518E+01   -5.2259928023500701E-01
C    5.2858585281761439E+00    1.3669679289496248E+01   -4.4986216412828212E-01
C    6.7163569535733556E+00    1.3711194690377619E+01   -5.0840550815250563E-01
C    3.1394190465248726E+00    1.4866729550705825E+01   -2.4713033824761332E-01
C    4.5686721612993688E+00    1.4908185648300892E+01   -2.9543216836861580E-01
C    5.2659967468706483E+00    1.6171545092077071E+01   -3.4080638785811235E-01
C    6.6881465663443906E+00    1.6175602189613457E+01   -4.3456146427566994E-01
C    3.1572442836896637E+00    1.7372245106880342E+01   -2.2504703093797479E-01
C    4.5814571790444019E+00    1.7404517827185565E+01   -2.3138753984981292E-01
C    5.2583186291871815E+00    1.8650812942474388E+01   -3.0229676861971927E-01
C    6.7462500090377482E+00    1.8635622709335568E+01   -3.7093220070602251E-01
C    3.1226371254956113E+00    1.9832607643324309E+01   -3.2148277673943165E-01
C    4.5477629451373698E+00    1.9872605566471407E+01   -3.2829312170264124E-01
C    5.3509869447848066E+00    8.7619151224211329E+00   -5.4552988299847516E-01
C    6.7678277925325538E+00    8.7396579091321840E+00   -5.4795689749614207E-01
C    7.4439645074222129E+00    9.9819119135551517E+00   -6.8055345735354855E-01
C    8.8555731056151608E+00    9.9210878616756428E+00   -7.0863019400373151E-01
C    9.5816388234313106E+00    1.1180279636870813E+01   -6.3630877358589810E-01
C    1.0993824924800869E+01    1.1186657974346053E+01   -5.0685739880215008E-01
C    7.4076932918456668E+00    1.2436683622914110E+01   -6.4192822089378165E-01
C    8.8223871690567748E+00    1.2434959769881921E+01   -6.2672456463763004E-01
C    9.5282455498088421E+00    1.3664303544840680E+01   -5.5646287282721607E-01
C    1.0972103734453075E+01    1.3658993956631237E+01   -5.2548427342889004E-01
C    7.3897910431461362E+00    1.4928270171543780E+01   -4.4457539572694388E-01
C    8.8322032030698718E+00    1.4913823641233048E+01   -4.9898419543152828E-01
C    9.5566990018232190E+00    1.6118581141785530E+01   -5.2929000437374363E-01
C    1.0998413890091276E+01    1.6149565187856407E+01   -6.1742353815136986E-01
C    7.4161595229941542E+00    1.7382354933549262E+01   -4.8878152215185455E-01
C    8.8446933773034946E+00    1.7342459679955088E+01   -5.4311161641894201E-01
C    9.5285571936556028E+00    1.8609766754573915E+01   -6.3518732362646602E-01
C    1.0959893389126567E+01    1.8599591734765053E+01   -8.1661892286259774E-01
C    7.4316667458102534E+00    1.9854786850371749E+01   -4.7592774404220284E-01
C    8.8456414304714279E+00    1.9874355789415013E+01   -5.5766381586637148E-01
C    9.5938877922253685E+00    8.7265730089175300E+00   -6.6225938592860767E-01
C    1.1020989539273041E+01    8.7417203372891947E+00   -6.1856410030667630E-01
C    1.1765544826814297E+01    9.9473079741573009E+00   -4.9256917229055752E-01
C    1.3152572225721686E+01    9.9670916751571763E+00   -3.7936729828620791E-01
C    1.3844022039654238E+01    1.1215978141586268E+01   -4.1667799336458067E-01
C    1.5292341586961241E+01    1.1166193053087074E+01   -3.8995472083455324E-01
C    1.1699988378385784E+01    1.2453194060392796E+01   -5.0115220500121360E-01
C    1.3128902142324428E+01    1.2434687069457109E+01   -4.1517020987168418E-01
C    1.3850473872947514E+01    1.3635992471182000E+01   -5.3427635099942039E-01
C    1.5292703169905417E+01    1.3658851961001810E+01   -6.2758500890468438E-01
C    1.1712986471423724E+01    1.4921474043442249E+01   -5.0590741124661998E-01
C    1.3143014853853545E+01    1.4878856674627400E+01   -5.5121339093956367E-01
C    1.3824354374432829E+01    1.6117006490288521E+01   -7.1749119952832974E-01
C    1.5271544457736908E+01    1.6166325463804331E+01   -7.3996382250570669E-01
C    1.1696094723562782E+01    1.7376061923761757E+01   -7.6050626775003582E-01
C    1.3129136630709185E+01    1.7365823847069137E+01   -8.0113910311111081E-01
C    1.3854536897762753E+01    1.8615183709485439E+01   -8.6007322144568643E-01
C    1.5273119807189689E+01    1.8626119554079221E+01   -7.9243754925664289E-01
C    1.1731595109469927E+01    1.9802073553953775E+01   -8.8619330001112595E-01
C    1.3126765594708429E+01    1.9838241492117945E+01   -9.3282984052538653E-01
C    1.3848177890375547E+01    8.7258426404236449E+00   -4.9388077582909201E-01
C    1.5283425751328259E+01    8.6618073579978248E+00   -4.5263840100307978E-01
C    1.5980940130461672E+01   -2.3519903939134963E+00   -6.5316732350799611E-01
C    1.7418710399370788E+01   -2.3529196677874946E+00   -5.8629184448821636E-01
C    1.8142468766370406E+01   -1.1292068538293254E+00   -6.8392481516494352E-01
C    1.9585642300237261E+01   -1.1822725417117890E+00   -7.0889035507755582E-01
C    1.6022692053436689E+01    1.3256618527436995E-01   -8.0628734514979972E-01
C    1.7452278694070522E+01    1.2368159590226527E-01   -7.2504935201526588E-01
C    1.8184387236151860E+01    1.3433842875850377E+00   -7.4191915030954780E-01
C    1.9597151676731031E+01    1.3395545340407513E+00   -7.2979557996057143E-01
C    1.5964692359529691E+01    2.5725563355973771E+00   -7.5770136757762674E-01
C    1.7388520246077402E+01    2.5548842916504522E+00   -7.0665835010830580E-01
C    1.8115284173417841E+01    3.7873536774508634E+00   -6.4256967059975378E-01
C    1.9560418264969464E+01    3.7780603324944386E+00   -5.8818011461704633E-01
C    1.5993847621510080E+01    5.0154469256112248E+00   -6.5924187111224752E-01
C    1.7398835959143806E+01    5.0472640993875322E+00   -6.2379001276699864E-01
C    1.8137875260057378E+01    6.2487198849790024E+00   -6.6271656483490271E-01
C    1.9573443936321212E+01    6.2607012804784432E+00   -7.0866925589255692E-01
C    1.6002672813504550E+01    7.4229014779009725E+00   -5.1978829687557015E-01
C    1.7462984559920105E+01    7.4913553074292567E+00   -5.6054705699703500E-01
C    1.8111033571588102E+01   -3.6157104910017859E+00   -5.1772009576204081E-01
C    1.9540973371851244E+01   -3.6036280599416481E+00   -5.4558694378744366E-01
C    2.0273654065607008E+01   -2.4021426907822439E+00   -5.8226836874872490E-01
C    2.1679469069922916E+01   -2.4291916823935371E+00   -4.7463748112166237E-01
C    2.2367804087082906E+01   -1.1924955015557201E+00   -3.9142773574386247E-01
C    2.3769275011506117E+01   -1.1572745849430501E+00   -3.0195178847138154E-01
C    2.0287396247361226E+01    5.9651659984884128E-02   -7.2608635154504231E-01
C    2.1706403572612530E+01    6.1443784038071624E-02   -6.0132542797373267E-01
C    2.2412343115263180E+01    1.3270843172146483E+00   -5.2267526267642661E-01
C    2.3819786776898539E+01    1.3387529714352093E+00   -4.7140006053398231E-01
C    2.0293180059010560E+01    2.5648038304261878E+00   -6.6058386315377582E-01
C    2.1715873864887243E+01    2.5526620398323914E+00   -6.5066868733790340E-01
C    2.2425073641356207E+01    3.7776984257347399E+00   -7.7118066441883248E-01
C    2.3853510756385049E+01    3.7899175735177484E+00   -7.1028049106826241E-01
C    2.0281640996176684E+01    5.0458201624621521E+00   -6.7077438579773963E-01
C    2.1725515097103994E+01    5.0401069636298201E+00   -7.1691002532781678E-01
C    2.2498173159576897E+01    6.2126183354193785E+00   -7.7385983923142565E-01
C    2.3902331920532060E+01    6.2732795431790125E+00   -7.7249586212774513E-01
C    2.0308857997967571E+01    7.4476006802461017E+00   -7.4118471544867692E-01
C    2.1774395962897142E+01    7.4393195534497591E+00   -6.8305610571431941E-01
C    2.2401525353352486E+01   -3.6448596643189384E+00   -3.9798691525193025E-01
C    2.3825748151959679E+01   -3.6485019186276340E+00   -3.3742788043585287E-01
C    2.4481785227592049E+01   -2.3925371087392615E+00   -3.2184227486564432E-01
C    2.5894338764776592E+01   -2.3787186508986085E+00   -2.0165127464614288E-01
C    2.6643152679516010E+01   -1.1360593971582815E+00   -9.1080179733870156E-02
C    2.8039522861586494E+01   -1.1505388353549693E+00   -1.8292918210873160E-01
C    2.4516119967786874E+01    8.2644715973962737E-02   -3.3345539140909869E-01
C    2.5953225585078805E+01    6.4838523030368883E-02   -1.8152844533527171E-01
C    2.6652563549133031E+01    1.3161606386691858E+00   -3.6700845186742187E-01
C    2.8103116166092210E+01    1.3288139951309788E+00   -3.8338984707980167E-01
C    2.4540860378214365E+01    2.5823775881464583E+00   -5.8713635354325233E-01
C    2.5974536421889482E+01    2.5564486204494767E+00   -5.1673577685538064E-01
C    2.6668870719760488E+01    3.7861717473149716E+00   -5.7899469400218007E-01
C    2.8100303587853265E+01    3.7762907085047495E+00   -5.3488027310723407E-01
C    2.4595063099518338E+01    5.0485811036647332E+00   -7.1821690946628158E-01
C    2.6028081457502019E+01    5.0337516760670828E+00   -7.3034431601354388E-01
C    2.6744691958683909E+01    6.2536669195313772E+00   -7.0913374420528019E-01
C    2.8169402157957201E+01    6.2488496517370615E+00   -6.7953273718016938E-01
C    2.4591257503487572E+01    7.5278655744988425E+00   -7.4137644059944630E-01
C    2.6041721122396243E+01    7.4964546059816692E+00   -6.8769842957941463E-01
C    2.6655736400802528E+01   -3.5776920097832452E+00   -2.4260052299592957E-01
C    2.8080801083006563E+01   -3.5766631946912644E+00   -2.6165359187045817E-01
C    1.6010632410598451E+01    9.9125431703548816E+00   -4.0498460831982774E-01
C    1.7456557973392158E+01    9.9311763870788905E+00   -4.9328501423065041E-01
C    1.8125423823934348E+01    1.1197447468471895E+01   -5.2840571267581760E-01
C    1.9581282550595084E+01    1.1182303438347818E+01   -5.1004591028394453E-01
C    1.5995518710633387E+01    1.2414596589231129E+01   -4.9144422527239956E-01
C    1.7390561479007790E+01    1.2421348847382406E+01   -5.0397558846558510E-01
C    1.8104525609079971E+01    1.3680984783147412E+01   -6.6343834285394399E-01
C    1.9510961341330784E+01    1.3669320727145042E+01   -7.4660989721061333E-01
C    1.5962716194820924E+01    1.4918807329953733E+01   -7.5021463912563524E-01
C    1.7387978077673296E+01    1.4891166728764141E+01   -7.9634472698624348E-01
C    1.8131051671014884E+01    1.6113851365158720E+01   -7.8927891331667399E-01
C    1.9583744843551010E+01    1.6140411010687007E+01   -8.0153111891430395E-01
C    1.5974953677463358E+01    1.7422172241068594E+01   -7.2713706480011675E-01
C    1.7403116316892365E+01    1.7353762432572250E+01   -7.4414938799913377E-01
C    1.8130673890079834E+01    1.8556732175704681E+01   -6.0689943391055934E-01
C    1.9552268714679297E+01    1.8568473587352987E+01   -6.9639750201770101E-01
C    1.5985782952386353E+01    1.9851026725944671E+01   -6.4845751654031292E-01
C    1.7399593023207991E+01    1.9799635383775875E+01   -5.3175862215792680E-01
C    1.8181442324161537E+01    8.6985087911757564E+00   -5.2965720922921278E-01
C    1.9619632504601480E+01    8.7012821221865533E+00   -6.2619602311814160E-01
C    2.0297229390604212E+01    9.9329350233132452E+00   -5.6718606501881952E-01
C    2.1704627424055030E+01    9.9649477560164872E+00   -5.8809653469791201E-01
C    2.2405387276340640E+01    1.1199882261685239E+01   -6.5576198976919386E-01
C    2.3804889649147473E+01    1.1163926859585949E+01   -6.8999494059763145E-01
C    2.0283271906060669E+01    1.2446066537435863E+01   -7.1330999853116273E-01
C    2.1710959373722233E+01    1.2422116373413637E+01   -7.4059776308099912E-01
C    2.2378385754323567E+01    1.3651350545400900E+01   -8.0177213572885431E-01
C    2.3788382365474668E+01    1.3676061838168678E+01   -6.3758793833019878E-01
C    2.0239394652804606E+01    1.4900639821385854E+01   -8.5135771703329421E-01
C    2.1690802569747152E+01    1.4886809000771194E+01   -8.6875240448560120E-01
C    2.2400339000212394E+01    1.6094371685039892E+01   -7.3417812006937755E-01
C    2.3830894265128737E+01    1.6110929507685729E+01   -6.2092454176037093E-01
C    2.0282060311130813E+01    1.7365273404875243E+01   -7.3441112701733946E-01
C    2.1695486669076768E+01    1.7355217593130487E+01   -6.4809200001860090E-01
C    2.2410041916452585E+01    1.8572193050927588E+01   -4.3780943508308545E-01
C    2.3816373218212160E+01    1.8554562479161639E+01   -3.7294948319360238E-01
C    2.0243712817323424E+01    1.9803727667020851E+01   -6.2466970388864607E-01
C    2.1700620730119184E+01    1.9778526579475699E+01   -5.0319153674122252E-01
C    2.2434939654552771E+01    8.7298391409390703E+00   -6.9295776964025146E-01
C    2.3841039779253389E+01    8.7432235068694180E+00   -7.1208185008319280E-01
C    2.4555736410967960E+01    9.9731120303896184E+00   -6.3041078336059642E-01
C    2.5992120605427431E+01    9.9519000659136001E+00   -6.7855259232253295E-01
C    2.6670144972351626E+01    1.1197215353714244E+01   -6.1041767730146257E-01
C    2.8099892783795397E+01    1.1179787790744331E+01   -5.5438573587243212E-01
C    2.4523959667285748E+01    1.2442653039573488E+01   -6.1851886841451564E-01
C    2.5944744539972074E+01    1.2426146124927074E+01   -5.9491682930478873E-01
C    2.6642695814906091E+01    1.3663884266497393E+01   -4.7987717045814016E-01
C    2.8080459123833677E+01    1.3663116681404073E+01   -3.8725553974635529E-01
C    2.4508777426425659E+01    1.4883360246462496E+01   -5.9973370494676959E-01
C    2.5949761099490519E+01    1.4882080887431359E+01   -4.6013459588714556E-01
C    2.6632158806359595E+01    1.6135811904767049E+01   -2.9252796261747172E-01
C    2.8098076235195439E+01    1.6141863148223909E+01   -2.0518835604663235E-01
C    2.4499057940065942E+01    1.7313754947436365E+01   -4.3660586514125949E-01
C    2.5903238657363350E+01    1.7344335932467398E+01   -2.9174125124778116E-01
C    2.6607268611632026E+01    1.8575102686410020E+01   -2.8548719585047971E-01
C    2.8058040302002738E+01    1.8607013124465123E+01   -2.3384643700328878E-01
C    2.4506511489179164E+01    1.9800562799572543E+01   -3.5631947010186071E-01
C    2.5901007024051033E+01    1.9805034978440819E+01   -2.9276400734895613E-01
C    2.6752992274636441E+01    8.7346802631708353E+00   -6.8158026508456260E-01
C    2.8150582279870953E+01    8.7638743000868580E+00   -6.5599623528234696E-01
O    3.1184183783619972E+02    9.1215717585546685E+01    1.0170236057334401E+01
H    3.1200623305181034E+02    9.1632585376006276E+01    9.2826526541617067E+00
H    3.1113431044069017E+02    9.0600587776785915E+01    1.0073253266364009E+01
O    3.3797032262470600E+02    7.6201012526351207E+01    1.1208889963825040E+01
H    3.3779244893121461E+02    7.6630406713203058E+01    1.2068730891048506E+01
H    3.3797933846337867E+02    7.6819393490017362E+01    1.0437615577916148E+01
O    2.3363418536139557E+02    1.8643566905847561E+02    1.7111512592779569E+01
H    2.3389704397604464E+02    1.8664318694218952E+02    1.8056567920300939E+01
H    2.3433753522236256E+02    1.8587904868437809E+02    1.6704388653815975E+01
O    3.7493442091683414E+02    1.1793601447674193E+02    8.8660107933722010E+00
H    3.7434946216540476E+02    1.1724078244661862E+02    8.4651619711104171E+00
H    3.7477182286544485E+02    1.1790212483593459E+02    9.8318610550957590E+00
O    3.4068898495273180E+02    2.4826124395209183E+02    1.0627174579748855E+01
H    3.4098210279881846E+02    2.4900412530916537E+02    9.9482728684272583E+00
H    3.3971825555712030E+02    2.4826606547843875E+02    1.0805758747313019E+01
O    2.9973985757862317E+02    1.2167639870457721E+02    6.5459566974267975E+00
H    3.0008958946501224E+02    1.2260982176147004E+02    6.8384502801415952E+00
H    2.9922405359320857E+02    1.2171447107965277E+02    5.6864160482746433E+00
O    2.7650204279518130E+02    1.3754830673923985E+02    4.2421371887536576E+00
H    2.7591569108352411E+02    1.3706914660262439E+02    4.8138936185104315E+00
H    2.7610339219203655E+02    1.3849115378147991E+02    4.0618857165328617E+00
O    3.0284560276688819E+02    6.4493635309509131E+01    1.8647553616977074E+01
H    3.0254683860214141E+02    6.5269738473943335E+01    1.8188052195087764E+01
H    3.0269480050410345E+02    6.3747124505415492E+01    1.8071609217321363E+01
O    1.9726134400591098E+02    1.6206705747233610E+02    9.0376336091784388E+00
H    1.9650022407824267E+02    1.6219032755090041E+02    8.3536461516066538E+00
H    1.9734450978904482E+02    1.6287038216211974E+02    9.5974346885380424E+00
O    4.0614811768849114E+02    1.6632273352722805E+02    1.4128897915151672E+01
H    4.0681514882199548E+02    1.6646927585093769E+02    1.3476091491032962E+01
H    4.0523277571664755E+02    1.6645230212494059E+02    1.3741692986100087E+01
O    3.4202459272988631E+02    1.2366390087408898E+02    5.6120409386725072E+00
H    3.4119504523808001E+02    1.2316663097327790E+02    5.4985323178424812E+00
H    3.4246815876729380E+02    1.2290761182471117E+02    6.0923140849612274E+00
O    2.4020167016580874E+02    1.0072951180482576E+02    1.7855068359945875E+01
H    2.4019370162567631E+02    1.0141551565882021E+02    1.7135162910136593E+01
H    2.4113212814615710E+02    1.0054734619592109E+02    1.7868122804984662E+01
O    3.1869956905807391E+02    7.1413474906891096E+01    2.5124624731375089E+00
H    3.1809826752809965E+02    7.0605837230015581E+01    2.5950178622268933E+00
H    3.1814728838045608E+02    7.2152652985460080E+01    2.1304894068163458E+00
O    3.8053639132562262E+02   -2.0204458077169082E+01    9.3849091540302609E+00
H    3.8058125205519718E+02   -2.0554573069821483E+01    1.0368552953503027E+01
H    3.8070073094828012E+02   -2.0997579759913474E+01    8.7638301666330207E+00
O    2.0685375179561095E+02    2.3953256476768425E+02    6.3779785850568524E+00
H    2.0776620127507661E+02    2.3955278705032819E+02    6.8015234799557289E+00
H    2.0661000504710333E+02    2.4045005956065668E+02    6.0660097115654690E+00
O    2.5991059985653106E+02    1.6748939973845972E+02    2.8463106732458430E+00
H    2.5922346151769483E+02    1.6814218591049973E+02    2.7772515995358726E+00
H    2.5946761452546650E+02    1.6663029353793277E+02    3.0532823111659213E+00
O    3.2150036584453164E+02    7.0809396254176150E+01    2.1655360083762369E+00
H    3.2059894894676393E+02    7.1254285832240470E+01    2.2658262932447943E+00
H    3.2222132176362078E+02    7.1235298064415105E+01    2.6815088512864387E+00
O    2.9839586889187211E+02    1.0818921977704296E+02    5.4682876434916663E+00
H    2.9856533654988328E+02    1.0813698784184857E+02    4.5085135596406136E+00
H    2.9808945610728864E+02    1.0906230377879119E+02    5.5484674492472577E+00
O    2.5461944223143962E+02    8.8226444691032654E+01    1.3111184988119604E+01
H    2.5380351885309932E+02    8.8755015311872910E+01    1.3400606551889384E+01