 # Version information for this restart file 
 # current date 2019-02-04 11:55:19.039
 # current working dir /scratch/snx3000/gtocci/gtocci/MEMBRANES/AIMD_US_IONS_GRA/potassium/aimd_us_pot/us_12
 # Program compiled at                             Thu Oct 11 21:49:41 CEST 2018
 # Program compiled on                                                  daint104
 # Program compiled for                                   CRAY_XC50-gfortran_gpu
 # Source code revision number                                     git:be74c20a5
 &GLOBAL
   PRINT_LEVEL  LOW
   PROJECT_NAME GRAS
   RUN_TYPE  MD
   WALLTIME 10200
 &END GLOBAL
 &MOTION
   &MD
     ENSEMBLE  NVT
     STEPS  100000
     TIMESTEP     9.9999999999999989E-01
     STEP_START_VAL  40743
     TIME_START_VAL     4.0742999999990767E+04
     ECONS_START_VAL    -8.3206161674160103E+03
     TEMPERATURE     3.0000000000000000E+02
     TEMP_KIND  T
     &BAROSTAT
       PRESSURE     1.0000000000000000E+00
       TIMECON     9.9999999999999986E+01
       VIRIAL  Z
     &END BAROSTAT
     &THERMOSTAT
       TYPE  NOSE
       REGION  GLOBAL
       &NOSE
         LENGTH  4
         TIMECON     9.9999999999999986E+01
         MTS  2
         &COORD
               1.4337551073986388E-01   -3.3004085362200843E+00   -1.5834055908414143E+01    1.5239777254480034E+01
         &END COORD
         &VELOCITY
               2.1600469190558975E-06    4.1844138070279413E-04   -4.5728589371480459E-05   -1.2603962939266574E-04
         &END VELOCITY
         &MASS
               7.0145132684705392E+07    1.6237299232570693E+04    1.6237299232570693E+04    1.6237299232570693E+04
         &END MASS
         &FORCE
              -7.9389133501604253E-10   -3.8353746218406247E-08    1.1658317523435561E-07   -5.6418909964199592E-08
         &END FORCE
       &END NOSE
     &END THERMOSTAT
     &AVERAGES  T
       &RESTART_AVERAGES
         ITIMES_START  1
         AVECPU     4.5877088754397718E+01
         AVEHUGONIOT     0.0000000000000000E+00
         AVETEMP_BARO     0.0000000000000000E+00
         AVEPOT    -8.3232758562784820E+03
         AVEKIN     2.0506537264173135E+00
         AVETEMP     2.9978910112513557E+02
         AVEKIN_QM     0.0000000000000000E+00
         AVETEMP_QM     0.0000000000000000E+00
         AVEVOL     2.1331414786628069E+05
         AVECELL_A     4.8437460238125503E+01
         AVECELL_B     4.6608961231944598E+01
         AVECELL_C     9.4486306644279495E+01
         AVEALPHA     9.0000000000000057E+01
         AVEBETA     9.0000000000000057E+01
         AVEGAMMA     9.0000000000000057E+01
         AVE_ECONS    -1.6458604224800146E+00
         AVE_PRESS     0.0000000000000000E+00
         AVE_PXX     0.0000000000000000E+00
       &END RESTART_AVERAGES
     &END AVERAGES
     &PRINT
       &TEMP_KIND  SILENT
       &END TEMP_KIND
     &END PRINT
   &END MD
   &FREE_ENERGY
     &METADYN
       MIN_DISP    -1.0000000000000000E+00
       OLD_HILL_NUMBER  0
       OLD_HILL_STEP  0
       DO_HILLS  F
       STEP_START_VAL  40743
       NHILLS_START_VAL  0
       &METAVAR
         SCALE     1.0000000000000000E+00
         COLVAR  1
       &END METAVAR
       &PRINT
         &COLVAR  SILENT
           COMMON_ITERATION_LEVELS  3
           &EACH
             MD  1
           &END EACH
         &END COLVAR
       &END PRINT
     &END METADYN
   &END FREE_ENERGY
   &CONSTRAINT
     &COLLECTIVE
       COLVAR  1
       INTERMOLECULAR  T
       &RESTRAINT
         K     4.4625385281452931E-04
       &END RESTRAINT
     &END COLLECTIVE
     &COLVAR_RESTART
           1.1338356797313859E+01
     &END COLVAR_RESTART
   &END CONSTRAINT
   &PRINT
     &TRAJECTORY  SILENT
       &EACH
         MD  1
       &END EACH
     &END TRAJECTORY
     &VELOCITIES  SILENT
       &EACH
         MD  1
       &END EACH
     &END VELOCITIES
     &FORCES  SILENT
       UNIT eV*angstrom^-1
       &EACH
         MD  1
       &END EACH
     &END FORCES
     &RESTART  SILENT
       &EACH
         MD  1
       &END EACH
     &END RESTART
     &RESTART_HISTORY  SILENT
       &EACH
         MD  100
       &END EACH
     &END RESTART_HISTORY
   &END PRINT
 &END MOTION
 &FORCE_EVAL
   METHOD  QS
   &DFT
     BASIS_SET_FILE_NAME /users/gtocci/scratch_daint_3000/data_cp2k//BASIS_MOLOPT
     POTENTIAL_FILE_NAME /users/gtocci/scratch_daint_3000/data_cp2k//GTH_POTENTIALS
     WFN_RESTART_FILE_NAME ./GRAS-RESTART.wfn
     CHARGE  1
     &SCF
       MAX_SCF  10
       EPS_SCF     9.9999999999999995E-07
       SCF_GUESS  RESTART
       &OT  T
         MINIMIZER  DIIS
         PRECONDITIONER  FULL_KINETIC
       &END OT
       &OUTER_SCF  T
         EPS_SCF     9.9999999999999995E-07
         MAX_SCF  30
       &END OUTER_SCF
       &PRINT
         &RESTART  SILENT
           ADD_LAST  NUMERIC
           &EACH
             QS_SCF  50
           &END EACH
         &END RESTART
       &END PRINT
     &END SCF
     &QS
       MAP_CONSISTENT  T
       EXTRAPOLATION  ASPC
       EXTRAPOLATION_ORDER  4
     &END QS
     &MGRID
       NGRIDS  5
       CUTOFF     4.6000000000000000E+02
     &END MGRID
     &XC
       DENSITY_CUTOFF     1.0000000000000000E-10
       GRADIENT_CUTOFF     1.0000000000000000E-10
       TAU_CUTOFF     1.0000000000000000E-10
       &XC_GRID
         XC_DERIV  SPLINE2_SMOOTH
       &END XC_GRID
       &XC_FUNCTIONAL  NO_SHORTCUT
         &LIBXC  T
           FUNCTIONAL XC_GGA_X_OPTB88_VDW
         &END LIBXC
         &VWN  T
         &END VWN
       &END XC_FUNCTIONAL
       &VDW_POTENTIAL
         POTENTIAL_TYPE  NON_LOCAL
         &NON_LOCAL
           TYPE  DRSLL
           VERBOSE_OUTPUT  T
           KERNEL_FILE_NAME /users/gtocci/scratch_daint_3000/data_cp2k//vdW_kernel_table.dat
         &END NON_LOCAL
       &END VDW_POTENTIAL
     &END XC
     &REAL_TIME_PROPAGATION
       INITIAL_WFN  SCF_WFN
     &END REAL_TIME_PROPAGATION
     &PRINT
       &MULLIKEN  SILENT
         FILENAME =GRAS.mulliken
       &END MULLIKEN
     &END PRINT
   &END DFT
   &SUBSYS
     &CELL
       A     2.5632000000000001E+01    0.0000000000000000E+00    0.0000000000000000E+00
       B     0.0000000000000000E+00    2.4664400000000022E+01    0.0000000000000000E+00
       C     0.0000000000000000E+00    0.0000000000000000E+00    5.0000000000000028E+01
       MULTIPLE_UNIT_CELL  1 1 1
     &END CELL
     &COORD
C   -4.0991358488517093E+00    6.0332320922168705E+00    2.0260618592482924E+00
C   -2.7032092409673520E+00    6.0040143304260560E+00    1.9721282037570267E+00
C   -1.9905544745739463E+00    7.2723868195727333E+00    1.8031041733346180E+00
C   -5.4070079046336372E-01    7.2533452450706468E+00    1.7254147174820111E+00
C   -4.1050752261803467E+00    8.5242824666932719E+00    1.7519732469603591E+00
C   -2.6903487917173270E+00    8.4812720618375739E+00    1.7296623310334935E+00
C   -1.9749820938795064E+00    9.7054117507253537E+00    1.6324073532764836E+00
C   -5.6362897965655445E-01    9.7152789404377167E+00    1.4770029555634916E+00
C   -4.0994570208307772E+00    1.0978576740951471E+01    1.5994074788659709E+00
C   -2.6568781513024953E+00    1.0938364805359091E+01    1.5795864811140254E+00
C   -1.9995899847253353E+00    1.2224941648780300E+01    1.5121387930808803E+00
C   -5.4443322609537070E-01    1.2209178822517897E+01    1.4683911492909327E+00
C   -4.1104570138977286E+00    1.3469668884912901E+01    1.6075990542309897E+00
C   -2.7196960397054881E+00    1.3461825771646231E+01    1.4996061624967780E+00
C   -1.9896665412457419E+00    1.4709878507545803E+01    1.4497057983758679E+00
C   -5.6755705568977455E-01    1.4662291022677353E+01    1.4237399027478006E+00
C   -4.1597258191947990E+00    1.5922579848907965E+01    1.5435273082143561E+00
C   -2.7181437711379299E+00    1.5907753434712905E+01    1.5062938863016651E+00
C   -1.9542423515556466E+00    4.7911105703580779E+00    2.0074544175873617E+00
C   -5.3821729585484401E-01    4.8157188976243273E+00    1.8858742720199915E+00
C    1.4449469664236303E-01    6.0228544845031120E+00    1.7719424778695834E+00
C    1.5756914895399576E+00    6.0280901065458785E+00    1.7355492165115511E+00
C    2.2700508387653349E+00    7.2757110561508949E+00    1.7072061735674364E+00
C    3.7024947496554259E+00    7.2458504304050102E+00    1.7623063962745025E+00
C    1.5975220849179328E-01    8.5017945262324304E+00    1.5592025713526778E+00
C    1.5738755392313828E+00    8.5039543258644965E+00    1.5608908713929273E+00
C    2.3274592183163882E+00    9.7481568991103735E+00    1.4874645262109647E+00
C    3.7656712602451132E+00    9.7314723552028966E+00    1.4809097824211552E+00
C    1.6041711950242910E-01    1.0973304671978218E+01    1.4224327214319712E+00
C    1.6147129414724626E+00    1.0972101278910646E+01    1.4271074502839176E+00
C    2.3454710317217438E+00    1.2209651891380274E+01    1.4178986464163070E+00
C    3.7824798964347814E+00    1.2215331697272772E+01    1.5307176776834766E+00
C    1.7813074992008188E-01    1.3457552235702151E+01    1.4698619113994942E+00
C    1.6098392496454934E+00    1.3489989270245298E+01    1.4370640143841245E+00
C    2.3465578324804426E+00    1.4709483526759181E+01    1.4504066398760189E+00
C    3.7727461915771885E+00    1.4665936046433334E+01    1.5500548916756836E+00
C    1.5438448658004256E-01    1.5876189266550339E+01    1.4858184648135726E+00
C    1.6069500136105017E+00    1.5906916612290445E+01    1.4712967383229076E+00
C    2.2846312901317982E+00    4.7996277767263456E+00    1.8615077502903667E+00
C    3.7191952836469704E+00    4.8075428339573731E+00    1.9044868335922069E+00
C    4.4216393126244853E+00    6.0376291129001647E+00    1.8819525268828632E+00
C    5.8302924557303477E+00    6.0407792335997534E+00    1.8251145270125511E+00
C    6.5620016899646396E+00    7.2789374649449812E+00    1.8253633298018854E+00
C    8.0336598520399551E+00    7.2326741300633115E+00    1.7730320060304181E+00
C    4.4110516954069272E+00    8.4907198646043867E+00    1.6705264340614703E+00
C    5.8412176370355882E+00    8.4885283875657436E+00    1.7384417611767893E+00
C    6.5840457009864641E+00    9.7222024491195693E+00    1.7142838617145499E+00
C    8.0100858085274318E+00    9.7153318702081179E+00    1.6748388846838789E+00
C    4.4810036898087127E+00    1.0953341298557993E+01    1.5444469141653019E+00
C    5.9035697785733818E+00    1.0965945885883839E+01    1.6265657570586349E+00
C    6.6033000865815419E+00    1.2157964294250407E+01    1.5625962251893446E+00
C    8.0294166276965946E+00    1.2174850859817054E+01    1.6611249577251919E+00
C    4.4975709088828522E+00    1.3432277366457674E+01    1.5577618282366359E+00
C    5.8999627668037382E+00    1.3427452565854566E+01    1.5302040383092672E+00
C    6.6098913046710797E+00    1.4670032093793157E+01    1.4999416436949382E+00
C    8.0169852742466645E+00    1.4658273836776376E+01    1.4981167848358179E+00
C    4.5000199633377180E+00    1.5885239519147209E+01    1.4796076772624382E+00
C    5.9147416792112821E+00    1.5926983417898150E+01    1.4164932308914329E+00
C    6.5396331011500211E+00    4.8262805286216857E+00    1.8292540493967022E+00
C    7.9836158184227166E+00    4.8165560647513077E+00    1.7650598461452256E+00
C   -4.1260100612236856E+00    1.8377708008016462E+01    1.5139823712229838E+00
C   -2.6936119687014797E+00    1.8388018006417241E+01    1.4845360156353709E+00
C   -1.9708711417480049E+00    1.9556061753202783E+01    1.5801809200179708E+00
C   -5.6952708300393196E-01    1.9553955650892561E+01    1.4718180850384210E+00
C   -4.1134099475050308E+00    2.0805576956523382E+01    1.8180053975237240E+00
C   -2.6439325176357831E+00    2.0774360886176346E+01    1.7367310719672175E+00
C   -1.9433943010511863E+00    2.2010459056464136E+01    1.7872406945099402E+00
C   -5.6635878558335773E-01    2.1986623795477897E+01    1.6222486193103056E+00
C   -4.0883480936801320E+00    2.3258291214726029E+01    2.0734833304843430E+00
C   -2.6715780189952985E+00    2.3216430313601464E+01    1.9621272458116383E+00
C   -1.9616968199542095E+00    2.4465970089794823E+01    1.9101511833900406E+00
C   -5.4811396326572481E-01    2.4458092725760796E+01    1.7254659541059940E+00
C   -4.1188828624404685E+00    2.5731328815302675E+01    2.0487206270939740E+00
C   -2.6764996572459485E+00    2.5714011087831715E+01    2.0048337409781452E+00
C   -1.9544331176969940E+00    2.6969422208032146E+01    2.0634800974161296E+00
C   -5.4444552176467598E-01    2.6960196441569312E+01    1.8972070646156509E+00
C   -4.1202580105595974E+00    2.8224421773178804E+01    2.0081285676139364E+00
C   -2.6391085689200260E+00    2.8211360169618892E+01    2.0698796438991156E+00
C   -1.9860003027835837E+00    1.7150079226673437E+01    1.4917052857256830E+00
C   -5.7328965211464111E-01    1.7124193839805269E+01    1.5225431632108302E+00
C    1.7003220645200567E-01    1.8338068529806872E+01    1.4363261114507113E+00
C    1.6103735489378861E+00    1.8358140827506343E+01    1.4152308872790615E+00
C    2.2847392203235861E+00    1.9577641778747903E+01    1.4152583954532414E+00
C    3.7078063738338591E+00    1.9590115652019250E+01    1.3505051895854687E+00
C    1.5654757283426229E-01    2.0768042861199209E+01    1.5031413864212180E+00
C    1.5571646117768507E+00    2.0817587508047463E+01    1.4621628982714658E+00
C    2.2982645476590178E+00    2.2025101374224846E+01    1.3626801596652072E+00
C    3.7248288672645353E+00    2.2055274013958051E+01    1.2698222632433367E+00
C    1.5877089464988914E-01    2.3236279045148741E+01    1.5407532233388728E+00
C    1.5746506073834872E+00    2.3230485147363652E+01    1.4059744370751006E+00
C    2.3011116871801511E+00    2.4495901276022273E+01    1.5035678491459306E+00
C    3.6851549186770574E+00    2.4484888137917416E+01    1.4484492333224972E+00
C    1.6799915489545106E-01    2.5698225348416930E+01    1.7159782226222893E+00
C    1.5743167651991961E+00    2.5768646954943172E+01    1.5570006627065447E+00
C    2.2701296745614541E+00    2.6976588436566846E+01    1.7409909632508378E+00
C    3.7277354962672189E+00    2.6949840177018352E+01    1.7347169785854217E+00
C    1.4595107190015039E-01    2.8219081456767448E+01    1.8751242371546208E+00
C    1.5769779795742220E+00    2.8222252905958456E+01    1.8020849874578901E+00
C    2.3253729149009259E+00    1.7130277299569460E+01    1.4835914780330091E+00
C    3.7395871047812310E+00    1.7090901069049039E+01    1.4398449783219285E+00
C    4.4256029965246970E+00    1.8357242156989383E+01    1.3585945203752463E+00
C    5.8881563577479854E+00    1.8386789911556139E+01    1.2165393936106059E+00
C    6.5784761783068415E+00    1.9596675182238382E+01    1.1860693700281109E+00
C    7.9983206225511081E+00    1.9598749701538612E+01    1.2344833934088104E+00
C    4.4639218418173430E+00    2.0868111177620975E+01    1.2639438594524042E+00
C    5.8789014512525286E+00    2.0817560240208376E+01    1.1908280867649095E+00
C    6.5751931404875279E+00    2.2080302721258938E+01    1.2362913860271061E+00
C    8.0118515816009523E+00    2.2074074784532069E+01    1.2920373924058763E+00
C    4.4139495954556693E+00    2.3228772776462382E+01    1.3788081225392039E+00
C    5.8378827390873731E+00    2.3294890594649036E+01    1.3762357790871413E+00
C    6.5720334327016010E+00    2.4529963343941990E+01    1.4872346839627562E+00
C    8.0143915674917103E+00    2.4545481675714804E+01    1.4659996772535946E+00
C    4.4005294934762462E+00    2.5730280121202835E+01    1.5993740034367285E+00
C    5.8568341364862517E+00    2.5760487799635484E+01    1.6139358298528350E+00
C    6.5709761307221708E+00    2.6976389296679052E+01    1.7108063210924831E+00
C    7.9824363786553478E+00    2.6993711409798554E+01    1.6762123909362678E+00
C    4.4066052695382467E+00    2.8237602990901937E+01    1.8801083565523211E+00
C    5.8559187862418733E+00    2.8228144885952645E+01    1.8354584277118520E+00
C    6.5965303359909218E+00    1.7169952371535697E+01    1.2756537595189528E+00
C    8.0295939940626972E+00    1.7129585482386382E+01    1.2863030978292849E+00
C    8.7516202254775504E+00    6.0252415549087077E+00    1.7743671720397713E+00
C    1.0151585091469395E+01    6.0279947076925771E+00    1.8280065063823199E+00
C    1.0865282479083982E+01    7.2570324708280154E+00    1.7753970866793500E+00
C    1.2297115337928895E+01    7.2608058927556982E+00    1.6913753824096314E+00
C    8.7303125432850788E+00    8.4883263762356833E+00    1.7553823501091939E+00
C    1.0176484302856121E+01    8.4837438186222727E+00    1.7481225144491175E+00
C    1.0878281098301398E+01    9.6971523389994729E+00    1.6862848954005130E+00
C    1.2318864520740441E+01    9.7550281934461864E+00    1.7052938707461289E+00
C    8.7686212113873339E+00    1.0986045002869968E+01    1.7042920056757658E+00
C    1.0176550903985033E+01    1.0947565852926425E+01    1.7289380550030282E+00
C    1.0887536592507523E+01    1.2167280217925741E+01    1.7489173936259876E+00
C    1.2334817070362204E+01    1.2216706775691801E+01    1.6551099446301847E+00
C    8.7600337079655652E+00    1.3428791952839026E+01    1.6959688207520534E+00
C    1.0175448164171643E+01    1.3426055057611775E+01    1.8316164362690377E+00
C    1.0877476873027296E+01    1.4668170421290947E+01    1.7125842051721378E+00
C    1.2314057673144962E+01    1.4667022724335355E+01    1.7233596536917584E+00
C    8.7644295575893363E+00    1.5877736994004675E+01    1.4166228295555390E+00
C    1.0152704038592010E+01    1.5871089140547667E+01    1.4841753513491172E+00
C    1.0891363236015179E+01    4.8089670540861471E+00    1.7563542769223874E+00
C    1.2312060251323745E+01    4.8106464505611584E+00    1.7289413367496655E+00
C    1.3024647180598132E+01    6.0434675325218441E+00    1.7089765792316454E+00
C    1.4483093802115851E+01    6.0542197195032523E+00    1.7019703927907650E+00
C    1.5163933146891136E+01    7.3011781846848125E+00    1.6565787281685957E+00
C    1.6560931740983126E+01    7.2663579178193638E+00    1.6531382818587941E+00
C    1.3026137259412277E+01    8.4982265980033809E+00    1.7202767191418882E+00
C    1.4434437023463531E+01    8.5105932387009062E+00    1.5917107822029954E+00
C    1.5174023845611091E+01    9.7299916503050543E+00    1.5489941960033435E+00
C    1.6594447265678060E+01    9.7221787323420958E+00    1.5511677120322969E+00
C    1.3032676551853159E+01    1.0978584185940202E+01    1.6401457640762285E+00
C    1.4439470020378307E+01    1.0977187260882726E+01    1.5445450178320381E+00
C    1.5136557137156185E+01    1.2201851431476516E+01    1.4707883866463705E+00
C    1.6545799527651216E+01    1.2182006778579225E+01    1.4782066857236085E+00
C    1.3002925625579469E+01    1.3406620720013233E+01    1.6727004893743294E+00
C    1.4423498580796444E+01    1.3465973001163407E+01    1.5165824669583021E+00
C    1.5105396518152705E+01    1.4710392106573542E+01    1.5661106786615508E+00
C    1.6522762874960630E+01    1.4668777343207319E+01    1.5644475402982678E+00
C    1.2983570799040390E+01    1.5907323383117525E+01    1.6608980547954302E+00
C    1.4366339226509325E+01    1.5932767522595856E+01    1.7128725240781477E+00
C    1.5154512844168003E+01    4.8357073650588909E+00    1.8186421130545067E+00
C    1.6606394680500781E+01    4.7979089871704348E+00    1.8857495744236825E+00
C    1.7268007936291720E+01    6.0253926619435365E+00    1.8479728395713479E+00
C    1.8679930662856677E+01    6.0462287206949092E+00    1.9720313467885036E+00
C    1.9427877433631878E+01    7.2717228207194058E+00    1.9165658247686332E+00
C    2.0865152741523438E+01    7.2824487734377383E+00    1.8978101161596836E+00
C    1.7299996585619130E+01    8.4862328826653517E+00    1.5286167392200249E+00
C    1.8712363065087278E+01    8.5277230268435371E+00    1.7372328979539033E+00
C    1.9410853703114402E+01    9.7567914461395873E+00    1.6674159920991076E+00
C    2.0816407462988408E+01    9.7279945360703124E+00    1.6906172987307528E+00
C    1.7261403971256957E+01    1.0949852817668260E+01    1.5865159223901149E+00
C    1.8727719322808220E+01    1.0989146782533188E+01    1.5870877714966178E+00
C    1.9433066017295939E+01    1.2204380587670991E+01    1.6331287777942962E+00
C    2.0845178686650563E+01    1.2234874336939717E+01    1.5956191980774119E+00
C    1.7238338219773990E+01    1.3425556953640452E+01    1.4858588196526732E+00
C    1.8699921245736984E+01    1.3444969424939655E+01    1.5535750370157706E+00
C    1.9371243842418309E+01    1.4678574159322498E+01    1.6391172402771355E+00
C    2.0792046645267796E+01    1.4689511884879508E+01    1.6502726859791941E+00
C    1.7232480315996693E+01    1.5922679905145317E+01    1.5926472153967499E+00
C    1.8654346109775275E+01    1.5918371788622530E+01    1.5530543752704673E+00
C    1.9406842081811703E+01    4.8055607719110318E+00    1.8881233861899582E+00
C    2.0832861302329675E+01    4.8228847143859053E+00    1.9583485023666303E+00
C    8.7188094822645059E+00    1.8358635846846045E+01    1.3162987950687834E+00
C    1.0145779171236907E+01    1.8347576521583370E+01    1.3850233742255253E+00
C    1.0851938046219789E+01    1.9585710128974785E+01    1.5694858785272516E+00
C    1.2255923444964644E+01    1.9611618304297050E+01    1.6219031558907318E+00
C    8.6993603264492680E+00    2.0848529151690947E+01    1.3135919312988189E+00
C    1.0153983649712293E+01    2.0826028349552423E+01    1.4946441380664566E+00
C    1.0854311785934975E+01    2.2053310265648093E+01    1.5289398060246753E+00
C    1.2280797511013054E+01    2.2052294032951604E+01    1.5653183402704440E+00
C    8.7013772190470604E+00    2.3294829924961373E+01    1.4404843863569747E+00
C    1.0144502925620648E+01    2.3286885537270035E+01    1.4685247800223384E+00
C    1.0879401799703233E+01    2.4507630093505746E+01    1.5595633831218341E+00
C    1.2290123227865212E+01    2.4538673123975688E+01    1.5100735254139321E+00
C    8.6937671469116609E+00    2.5782790531351068E+01    1.5424479380687686E+00
C    1.0130041006058685E+01    2.5737505875089568E+01    1.5388905791450249E+00
C    1.0783080524890671E+01    2.6995378534607024E+01    1.7106686704079108E+00
C    1.2211270207036133E+01    2.6994780343569314E+01    1.7275693879055076E+00
C    8.6755320892585921E+00    2.8275996671396406E+01    1.7068500268956044E+00
C    1.0106730927732361E+01    2.8255062925349954E+01    1.7467356563983696E+00
C    1.0862932078669068E+01    1.7122266894858978E+01    1.3811495346317511E+00
C    1.2278425176006538E+01    1.7143281503177850E+01    1.5013314231242205E+00
C    1.2966908682257230E+01    1.8359594362739621E+01    1.6345578212555483E+00
C    1.4389992251964747E+01    1.8382931950953381E+01    1.7235858539939208E+00
C    1.5102822127289896E+01    1.9633727991836704E+01    1.7349034084066950E+00
C    1.6483888854186020E+01    1.9596945246525550E+01    1.7150317335620953E+00
C    1.2966002285872484E+01    2.0821884647503211E+01    1.6331349336574770E+00
C    1.4379943884422813E+01    2.0871351182949944E+01    1.7245468723100330E+00
C    1.5093681481773901E+01    2.2102933429467125E+01    1.7275299844026644E+00
C    1.6506295309808028E+01    2.2052188369626862E+01    1.9211344608437169E+00
C    1.2967387145644015E+01    2.3275659412876209E+01    1.4949768883499981E+00
C    1.4379919016339196E+01    2.3306579270926299E+01    1.6735030632925132E+00
C    1.5066616226571547E+01    2.4524468010028233E+01    1.6873915066877196E+00
C    1.6485545040834616E+01    2.4535522487294600E+01    1.8439247961204426E+00
C    1.2971661590750369E+01    2.5786739347275397E+01    1.5988779211731294E+00
C    1.4390905673747389E+01    2.5768830399598553E+01    1.6156679372303986E+00
C    1.5083021384379354E+01    2.7011270788061413E+01    1.6579784625761782E+00
C    1.6513345497981952E+01    2.7031029514513236E+01    1.8216340963514603E+00
C    1.2951423981514754E+01    2.8227941382033816E+01    1.7185437628797138E+00
C    1.4410022337598676E+01    2.8259756884977307E+01    1.7585317075710161E+00
C    1.5094127423264803E+01    1.7136985965914956E+01    1.7164619154216503E+00
C    1.6513194196601486E+01    1.7129600572359884E+01    1.6569195462969464E+00
C    1.7234768836691334E+01    1.8359477021743412E+01    1.5653749025002059E+00
C    1.8653585096781299E+01    1.8425973019344291E+01    1.5419413831834894E+00
C    1.9369105190525584E+01    1.9627280427475299E+01    1.6879235339320642E+00
C    2.0782178485758500E+01    1.9609212538655285E+01    1.6895412562532750E+00
C    1.7214983044767358E+01    2.0817282293125707E+01    1.9091179531187190E+00
C    1.8628471041250368E+01    2.0821461942407055E+01    1.8620700610946879E+00
C    1.9369648732428686E+01    2.2019687524953877E+01    1.9972551783843342E+00
C    2.0788213613389754E+01    2.2020508389543604E+01    1.9860705418095823E+00
C    1.7199156167088667E+01    2.3278742738363700E+01    1.9931893051530116E+00
C    1.8632968672274778E+01    2.3251540604002439E+01    2.0824481487987412E+00
C    1.9379933750634368E+01    2.4482788207474389E+01    2.0046481435406847E+00
C    2.0821498452764004E+01    2.4498515046425190E+01    2.0926297380406167E+00
C    1.7232189561151110E+01    2.5758379484883850E+01    1.8626057767353585E+00
C    1.8657386857028733E+01    2.5725902863003022E+01    1.9515470801925958E+00
C    1.9358364999724547E+01    2.6967011353631140E+01    1.9010672506825239E+00
C    2.0805451300974269E+01    2.6995691506843574E+01    1.9076923596939461E+00
C    1.7265408855895650E+01    2.8225819659519139E+01    1.9321461708537278E+00
C    1.8695082646842756E+01    2.8236503115499115E+01    1.9503176034754728E+00
C    1.9338059384776063E+01    1.7191062503972915E+01    1.4699921333423207E+00
C    2.0760839543250633E+01    1.7157963036917881E+01    1.5085860877393782E+00
O    1.6845685821391999E+02    1.2958454981106019E+02    9.4165181689091622E+00
H    1.6929763699555522E+02    1.3013335783996720E+02    9.3025165665563083E+00
H    1.6801001013155874E+02    1.2993340016141337E+02    1.0233765747024213E+01
O    1.3740021592573518E+02    5.4647025242546476E+01    1.4472865767919018E+01
H    1.3808984831793489E+02    5.5322074946420948E+01    1.4167105373310847E+01
H    1.3712287252031672E+02    5.4259908352581711E+01    1.3625362190673657E+01
O    6.4403399791728930E+01    1.3828737147453847E+02    2.1091332682375949E+01
H    6.4159244148427547E+01    1.3894113555614686E+02    2.1799086905812491E+01
H    6.3580476847752841E+01    1.3778682303677149E+02    2.1069958940109093E+01
O    2.0591983351851982E+02    4.9359849519439308E+01    7.2629679249950421E+00
H    2.0557395962633447E+02    4.8758303755754014E+01    7.9921208878038623E+00
H    2.0657624853461488E+02    4.9957973456433194E+01    7.6835484733560957E+00
O    1.3244258940589302E+02    1.8839166693479299E+02    9.6325558280064723E+00
H    1.3188783249825468E+02    1.8818580326395860E+02    1.0392775515616806E+01
H    1.3260690299273463E+02    1.8754626194723693E+02    9.1105049852409028E+00
O    1.7895819780275457E+02    3.6365898807527812E+00    7.5607561600279691E+00
H    1.7832870780185181E+02    2.9207883591654511E+00    7.7003660380465737E+00
H    1.7851554257848142E+02    4.4418033757482736E+00    7.9508315028559586E+00
O    1.6272427068080978E+02    1.1878428535550614E+02    1.3024827499033293E+01
H    1.6374120917347122E+02    1.1885720888523063E+02    1.3026059973357226E+01
H    1.6236329058442001E+02    1.1950827851727530E+02    1.2479826015621549E+01
O    1.2006982613609085E+02    1.5513725382243033E+00    5.1813611606223491E+00
H    1.2026893515814682E+02    1.5735798410189241E+00    6.1237847272205750E+00
H    1.1988548614645683E+02    5.9401307144760318E-01    5.0691063276851054E+00
O   -9.6577661571915758E+00    1.5569459569291652E+02    5.7245537839543532E+00
H   -1.0288710785633821E+01    1.5636535809828314E+02    5.9970044632854700E+00
H   -9.2772045256687043E+00    1.5545820649324452E+02    6.5874310193721417E+00
O    2.3229927052739760E+02    5.5899234817958963E+01    2.0986023586923221E+01
H    2.3259974789467631E+02    5.6659949239976470E+01    2.0429749851050293E+01
H    2.3134717100938158E+02    5.5790254666622985E+01    2.0836236354008346E+01
O    1.2054684277036023E+02    1.1937406809235863E+02    1.9902443328469133E+01
H    1.2013103773547880E+02    1.1867444627206078E+02    1.9377273237954395E+01
H    1.1981907326687714E+02    1.1987890838840869E+02    2.0323062197627618E+01
O    8.3089784978740255E+01    7.0626408517773910E+01    4.3593912833310577E+00
H    8.3623695042913013E+01    7.0302315382102393E+01    5.1038998309758972E+00
H    8.3065590380444007E+01    6.9918820434258436E+01    3.6910458870716489E+00
O    1.6451188386831862E+02    3.5770944232872900E+01    1.9482393999970768E+01
H    1.6509887739555671E+02    3.5038344840639454E+01    1.9601707841109029E+01
H    1.6478191796782926E+02    3.6099639488055907E+01    1.8598385139379637E+01
O    1.8729801007586124E+02   -1.0434924052971685E-01    1.5303941655729513E+01
H    1.8689304035811006E+02   -9.7059770815895208E-01    1.5641424527150077E+01
H    1.8752024622186582E+02    3.4971005947467676E-01    1.6120719478746963E+01
O    1.3564330411776430E+02    2.1378342117945886E+02    2.0357711697688991E+01
H    1.3627887576969317E+02    2.1397551565512771E+02    1.9633306015477441E+01
H    1.3540782741552016E+02    2.1285046583456995E+02    2.0208827388966629E+01
O    1.0592307876435962E+02    1.1235407193706854E+02    1.1565673275503356E+01
H    1.0659893343523572E+02    1.1206027973290313E+02    1.0915984895854727E+01
H    1.0507409516262416E+02    1.1237050383520760E+02    1.1042206249903241E+01
O    1.1089649419679475E+02    1.2292306063919659E+02    8.6327243214555178E+00
H    1.1148633626699284E+02    1.2215679065044320E+02    8.7360901390737080E+00
H    1.1013734393811303E+02    1.2271928652976015E+02    8.0404213725137623E+00
O    1.3457099274070106E+02    7.7127546819798042E+01    9.8856654383347280E+00
H    1.3534585195664732E+02    7.6592140196796294E+01    9.7916973092950919E+00
H    1.3419870171441156E+02    7.7433197497338810E+01    9.0471720159958462E+00
O    8.9188033364101386E+01    8.2893513920192731E+01    1.7696821768792326E+01
H    8.8371912574721520E+01    8.2537085187596887E+01    1.7224833976433789E+01