 # Version information for this restart file 
 # current date 2020-04-19 00:15:18.457
 # current working dir /scratch/snx3000/gtocci/gtocci/MEMBRANES/AIMD_US_IONS_GRA/us_aimd_new/us_6
 # Program compiled at                              Fri Nov 22 15:19:42 CET 2019
 # Program compiled on                                                  daint102
 # Program compiled for                                   CRAY_XC50-gfortran_gpu
 # Source code revision number                                       git:a698b45
 &GLOBAL
   PRINT_LEVEL  LOW
   PROJECT_NAME GRAS
   RUN_TYPE  MD
   WALLTIME 86400
 &END GLOBAL
 &MOTION
   &MD
     ENSEMBLE  NVT
     STEPS  2000
     TIMESTEP     9.9999999999999989E-01
     STEP_START_VAL  77786
     TIME_START_VAL     7.7785999999933760E+04
     ECONS_START_VAL    -8.3039690447475296E+03
     TEMPERATURE     3.0000000000000000E+02
     TEMP_KIND  T
     &BAROSTAT
       PRESSURE     1.0000000000000000E+00
       TIMECON     9.9999999999999986E+01
       VIRIAL  Z
     &END BAROSTAT
     &THERMOSTAT
       TYPE  NOSE
       REGION  GLOBAL
       &NOSE
         LENGTH  4
         TIMECON     9.9999999999999986E+01
         MTS  2
         &COORD
               1.7143275024426083E-01   -2.8628381042523973E+01    1.0286600140389478E+01    2.3764069443330818E+01
         &END COORD
         &VELOCITY
              -5.6966346486473292E-07    6.9651395741301763E-05    2.3012518705000436E-04    3.3268358317998229E-04
         &END VELOCITY
         &MASS
               7.0145132684705392E+07    1.6237299232570693E+04    1.6237299232570693E+04    1.6237299232570693E+04
         &END MASS
         &FORCE
               2.8329766026084423E-10   -5.7108102729073760E-08   -5.3658696921393639E-08   -5.5524121353055762E-09
         &END FORCE
       &END NOSE
     &END THERMOSTAT
     &AVERAGES  T
       &RESTART_AVERAGES
         ITIMES_START  1
         AVECPU     3.1419984299744360E+01
         AVEHUGONIOT     0.0000000000000000E+00
         AVETEMP_BARO     0.0000000000000000E+00
         AVEPOT    -8.3065639288396360E+03
         AVEKIN     2.0522349775209947E+00
         AVETEMP     3.0002026733370451E+02
         AVEKIN_QM     0.0000000000000000E+00
         AVETEMP_QM     0.0000000000000000E+00
         AVEVOL     2.1331414786626332E+05
         AVECELL_A     4.8437460238121709E+01
         AVECELL_B     4.6608961231948342E+01
         AVECELL_C     9.4486306644281314E+01
         AVEALPHA     9.0000000000000028E+01
         AVEBETA     9.0000000000000028E+01
         AVEGAMMA     9.0000000000000028E+01
         AVE_ECONS     3.0837867147452952E-01
         AVE_PRESS     0.0000000000000000E+00
         AVE_PXX     0.0000000000000000E+00
       &END RESTART_AVERAGES
     &END AVERAGES
     &PRINT
       &TEMP_KIND  SILENT
       &END TEMP_KIND
     &END PRINT
   &END MD
   &FREE_ENERGY
     &METADYN
       MIN_DISP    -1.0000000000000000E+00
       OLD_HILL_NUMBER  0
       OLD_HILL_STEP  0
       DO_HILLS  F
       STEP_START_VAL  77786
       NHILLS_START_VAL  0
       &METAVAR
         SCALE     1.0000000000000000E+00
         COLVAR  1
       &END METAVAR
       &PRINT
         &COLVAR  SILENT
           COMMON_ITERATION_LEVELS  3
           &EACH
             MD  1
           &END EACH
         &END COLVAR
       &END PRINT
     &END METADYN
   &END FREE_ENERGY
   &CONSTRAINT
     &COLLECTIVE
       COLVAR  1
       INTERMOLECULAR  T
       &RESTRAINT
         K     4.4625385281452931E-04
       &END RESTRAINT
     &END COLLECTIVE
     &COLVAR_RESTART
           5.6691783986569293E+00
     &END COLVAR_RESTART
   &END CONSTRAINT
   &PRINT
     &TRAJECTORY  SILENT
       &EACH
         MD  1
       &END EACH
     &END TRAJECTORY
     &VELOCITIES  SILENT
       &EACH
         MD  1
       &END EACH
     &END VELOCITIES
     &FORCES  SILENT
       UNIT eV*angstrom^-1
       &EACH
         MD  1
       &END EACH
     &END FORCES
     &RESTART  SILENT
       &EACH
         MD  1
       &END EACH
     &END RESTART
     &RESTART_HISTORY  SILENT
       &EACH
         MD  100
       &END EACH
     &END RESTART_HISTORY
   &END PRINT
 &END MOTION
 &FORCE_EVAL
   METHOD  QS
   &DFT
     BASIS_SET_FILE_NAME /users/gtocci/scratch_daint_3000/data_cp2k//BASIS_MOLOPT
     POTENTIAL_FILE_NAME /users/gtocci/scratch_daint_3000/data_cp2k//GTH_POTENTIALS
     WFN_RESTART_FILE_NAME ./GRAS-RESTART.wfn
     CHARGE  -1
     &SCF
       MAX_SCF  10
       EPS_SCF     9.9999999999999995E-07
       SCF_GUESS  RESTART
       &OT  T
         MINIMIZER  DIIS
         PRECONDITIONER  FULL_KINETIC
       &END OT
       &OUTER_SCF  T
         EPS_SCF     9.9999999999999995E-07
         MAX_SCF  30
       &END OUTER_SCF
       &PRINT
         &RESTART  SILENT
           ADD_LAST  NUMERIC
           &EACH
             QS_SCF  50
           &END EACH
         &END RESTART
       &END PRINT
     &END SCF
     &QS
       MAP_CONSISTENT  T
       EXTRAPOLATION  ASPC
       EXTRAPOLATION_ORDER  4
     &END QS
     &MGRID
       NGRIDS  5
       CUTOFF     4.6000000000000000E+02
     &END MGRID
     &XC
       DENSITY_CUTOFF     1.0000000000000000E-10
       GRADIENT_CUTOFF     1.0000000000000000E-10
       TAU_CUTOFF     1.0000000000000000E-10
       &XC_GRID
         XC_DERIV  SPLINE2_SMOOTH
       &END XC_GRID
       &XC_FUNCTIONAL  NO_SHORTCUT
         &LIBXC  T
           FUNCTIONAL XC_GGA_X_OPTB88_VDW
         &END LIBXC
         &VWN  T
         &END VWN
       &END XC_FUNCTIONAL
       &VDW_POTENTIAL
         POTENTIAL_TYPE  NON_LOCAL
         &NON_LOCAL
           TYPE  DRSLL
           VERBOSE_OUTPUT  T
           KERNEL_FILE_NAME /users/gtocci/scratch_daint_3000/data_cp2k//vdW_kernel_table.dat
         &END NON_LOCAL
       &END VDW_POTENTIAL
     &END XC
     &REAL_TIME_PROPAGATION
       INITIAL_WFN  SCF_WFN
     &END REAL_TIME_PROPAGATION
     &PRINT
       &MULLIKEN  SILENT
         FILENAME =GRAS.mulliken
       &END MULLIKEN
     &END PRINT
   &END DFT
   &SUBSYS
     &CELL
       A     2.5632000000000001E+01    0.0000000000000000E+00    0.0000000000000000E+00
       B     0.0000000000000000E+00    2.4664400000000022E+01    0.0000000000000000E+00
       C     0.0000000000000000E+00    0.0000000000000000E+00    5.0000000000000028E+01
       MULTIPLE_UNIT_CELL  1 1 1
     &END CELL
     &COORD
C    4.5285603208752443E+00    1.9173405391586428E+01   -1.0097207562500053E+01
C    5.9498534251863582E+00    1.9192476830638800E+01   -1.0160067269555880E+01
C    6.6486231987666953E+00    2.0459950096516987E+01   -1.0289858533668106E+01
C    8.0896213466140683E+00    2.0475642087483624E+01   -1.0269341080186628E+01
C    4.5011846912821794E+00    2.1659776689658589E+01   -1.0360325055978755E+01
C    5.9104081689256063E+00    2.1693546752993988E+01   -1.0311284677604959E+01
C    6.6466269018335087E+00    2.2916127835105733E+01   -1.0338916615831252E+01
C    8.0593904031132162E+00    2.2918494251677142E+01   -1.0400916229288432E+01
C    4.4893932901848643E+00    2.4109587422155819E+01   -1.0408879052564339E+01
C    5.9136858919312134E+00    2.4154717865896682E+01   -1.0410912786934775E+01
C    6.6201032543401173E+00    2.5375097938396451E+01   -1.0387786478358493E+01
C    8.0559468505958307E+00    2.5385997092565013E+01   -1.0378130325252561E+01
C    4.4984494420979795E+00    2.6587719185045248E+01   -1.0199496703303124E+01
C    5.9549357348328265E+00    2.6589832242311896E+01   -1.0344309092695703E+01
C    6.6497621998732921E+00    2.7870939331193700E+01   -1.0305971168224254E+01
C    8.0887590081523761E+00    2.7857801180979276E+01   -1.0273587338035464E+01
C    4.5652233419219872E+00    2.9105885790913781E+01   -9.9626219652842902E+00
C    5.9731410185698302E+00    2.9113665915904363E+01   -1.0130307634532713E+01
C    6.7060240969538336E+00    1.7970462777921771E+01   -1.0138978358233334E+01
C    8.1153940029290972E+00    1.8000475800362238E+01   -1.0049941686913431E+01
C    8.8004884336923421E+00    1.9224021028358667E+01   -1.0142870322808779E+01
C    1.0222294707088711E+01    1.9272176077441628E+01   -1.0096673532955329E+01
C    1.0966634427834103E+01    2.0509172489240964E+01   -1.0186136960031062E+01
C    1.2388733085724780E+01    2.0511659633363497E+01   -1.0124082495361380E+01
C    8.7989578859196538E+00    2.1669488036714185E+01   -1.0297114298462862E+01
C    1.0225356690492598E+01    2.1700701116866806E+01   -1.0244786599481706E+01
C    1.0911882688028143E+01    2.2898901148047649E+01   -1.0149876132594233E+01
C    1.2382264010628699E+01    2.2940209770641459E+01   -1.0248844322716964E+01
C    8.7557724303551723E+00    2.4145833145910927E+01   -1.0329466269837102E+01
C    1.0163840715318674E+01    2.4124530347320178E+01   -1.0186094835196936E+01
C    1.0871337423362641E+01    2.5377422608328057E+01   -1.0114437438839190E+01
C    1.2317352405753272E+01    2.5372246215444186E+01   -1.0124761537633404E+01
C    8.7791502630834231E+00    2.6598550724578189E+01   -1.0279153774942209E+01
C    1.0226735719096100E+01    2.6621866692106618E+01   -1.0143506227017285E+01
C    1.0965479870218761E+01    2.7832522953158421E+01   -1.0153770902412642E+01
C    1.2400260227192396E+01    2.7866706798235608E+01   -1.0056285649846622E+01
C    8.8159898549023890E+00    2.9089489944595091E+01   -1.0135963310263101E+01
C    1.0247174406841095E+01    2.9090221400170584E+01   -1.0125601010958002E+01
C    1.0912990579010964E+01    1.8029531569212622E+01   -1.0080760166712611E+01
C    1.2343328686931764E+01    1.8047030591231405E+01   -9.9606212236404588E+00
C    1.3069607084739964E+01    1.9290612043510336E+01   -9.9755739308780687E+00
C    1.4509765837186713E+01    1.9268878164730868E+01   -9.9263451020954303E+00
C    1.5251476205441511E+01    2.0439434077912797E+01   -1.0024489798928881E+01
C    1.6619971010308866E+01    2.0491132819621441E+01   -1.0037120173941942E+01
C    1.3102594687870983E+01    2.1697407923380659E+01   -1.0228325171652640E+01
C    1.4523000774817847E+01    2.1702580463086651E+01   -1.0159505771673853E+01
C    1.5212352337180354E+01    2.2916768986600758E+01   -1.0232486713127670E+01
C    1.6648817710804202E+01    2.2961559663818637E+01   -1.0109406158875389E+01
C    1.3104321198900012E+01    2.4164241468645642E+01   -1.0274805195000543E+01
C    1.4521474177758716E+01    2.4120506940432076E+01   -1.0323456645437753E+01
C    1.5234284937059492E+01    2.5370157611881080E+01   -1.0141123588861907E+01
C    1.6644496248416019E+01    2.5394499354706031E+01   -1.0065366827127763E+01
C    1.3053879858792971E+01    2.6606879034879178E+01   -1.0031353871391763E+01
C    1.4509240664930175E+01    2.6564627223359182E+01   -1.0045719688056025E+01
C    1.5216986007769657E+01    2.7842004470722980E+01   -1.0039519422011049E+01
C    1.6626222065768332E+01    2.7827550018896410E+01   -1.0033272413318027E+01
C    1.3104597289454700E+01    2.9115856119056328E+01   -1.0037045927424957E+01
C    1.4517881051091278E+01    2.9070389234968083E+01   -1.0005726115397318E+01
C    1.5199786471245078E+01    1.8036546042887331E+01   -9.9139973620243804E+00
C    1.6637133735633313E+01    1.8038043235540400E+01   -9.9108920160817018E+00
C    4.4806342328510622E+00    3.1552709048454311E+01   -9.9273043443300732E+00
C    5.9998454452789796E+00    3.1548256684328102E+01   -9.9751352518373846E+00
C    6.7076715670506699E+00    3.2801484470020640E+01   -9.9183225338345853E+00
C    8.1379648173783341E+00    3.2815528664320553E+01   -1.0014703728304225E+01
C    4.5442965663851318E+00    3.4023752023265828E+01   -9.8175563929032190E+00
C    5.9926068024751027E+00    3.4040402219681042E+01   -9.8550051048727063E+00
C    6.6892954453662954E+00    3.5303132309428491E+01   -9.8842737349705541E+00
C    8.1339468173847447E+00    3.5292346275306350E+01   -1.0005081455269730E+01
C    4.5323379384742530E+00    3.6528294603970203E+01   -9.8668687931756978E+00
C    5.9485777028718321E+00    3.6527961160194508E+01   -9.9051031823995839E+00
C    6.6661363706697641E+00    3.7733426547121702E+01   -9.9354825818058448E+00
C    8.1108203296240546E+00    3.7731386370851425E+01   -9.9777151572672480E+00
C    4.5501343344840937E+00    3.8976700524612447E+01   -9.9913332778880761E+00
C    5.9656511350305248E+00    3.8961082410206089E+01   -9.9561821954056935E+00
C    6.6778037392797431E+00    4.0197741874348090E+01   -1.0116779907788757E+01
C    8.1019163484510202E+00    4.0187686239332116E+01   -1.0130267378208968E+01
C    4.5647175982949841E+00    4.1436022366451262E+01   -9.9757330452548203E+00
C    5.9874408130133272E+00    4.1416623434072562E+01   -1.0127040146335158E+01
C    6.6731050386995170E+00    3.0336992357821053E+01   -1.0079293894321875E+01
C    8.1304354120561602E+00    3.0341028303173818E+01   -1.0087068567190938E+01
C    8.8156952057776046E+00    3.1572790637636100E+01   -1.0023110790448390E+01
C    1.0217449368385839E+01    3.1553145689095388E+01   -1.0043574193056752E+01
C    1.0941555179432566E+01    3.2777340971169053E+01   -1.0016361128448471E+01
C    1.2383341565039926E+01    3.2785054234731348E+01   -1.0088264299852510E+01
C    8.8275677943149002E+00    3.4058073830741435E+01   -1.0033005354283949E+01
C    1.0260370508704664E+01    3.4040284588090046E+01   -1.0022164253473377E+01
C    1.0962743849212153E+01    3.5284801171734543E+01   -1.0025365720895708E+01
C    1.2407383610531301E+01    3.5278502678534998E+01   -1.0128849467841317E+01
C    8.8228705223619919E+00    3.6527918009069467E+01   -9.9525469640110185E+00
C    1.0234475780739849E+01    3.6485712170119847E+01   -9.9735001170844377E+00
C    1.0924614527814258E+01    3.7711793751692944E+01   -1.0040747409735278E+01
C    1.2369427613571146E+01    3.7725455358979701E+01   -1.0084848888257458E+01
C    8.8211147906739580E+00    3.8965908369486286E+01   -9.9881877891054121E+00
C    1.0231367352492938E+01    3.8931178753779513E+01   -1.0115978607090018E+01
C    1.0920835724436696E+01    4.0198219595498593E+01   -1.0109400145154190E+01
C    1.2327991565472514E+01    4.0211352224593817E+01   -1.0154852162141333E+01
C    8.8018093284337358E+00    4.1425252433645177E+01   -1.0057643003251066E+01
C    1.0214054548341332E+01    4.1441439407986053E+01   -1.0033734662572941E+01
C    1.0958413639199533E+01    3.0367207183022760E+01   -1.0078673842193615E+01
C    1.2387449928941725E+01    3.0363170317973374E+01   -1.0088681076220110E+01
C    1.3106361457236416E+01    3.1563360660467037E+01   -1.0067518790536097E+01
C    1.4512830026131786E+01    3.1582268676835213E+01   -9.9960669463970202E+00
C    1.5254841960041064E+01    3.2778911747380356E+01   -9.9129574667862705E+00
C    1.6707276695154746E+01    3.2792105815490579E+01   -9.8444206672783778E+00
C    1.3144901814442926E+01    3.4014526426512589E+01   -1.0119764923891077E+01
C    1.4548058339395190E+01    3.3983307764787440E+01   -1.0052130014128030E+01
C    1.5212945168438756E+01    3.5254070373397376E+01   -9.9238576989460494E+00
C    1.6655553974425363E+01    3.5275884842496147E+01   -9.7720511507328354E+00
C    1.3102568492671116E+01    3.6509313695355580E+01   -1.0215718426512092E+01
C    1.4511204824376735E+01    3.6523675321856352E+01   -1.0072165871456278E+01
C    1.5150257919632802E+01    3.7783409529166313E+01   -1.0078868678643497E+01
C    1.6591974349899118E+01    3.7726500443173094E+01   -9.9652878086137964E+00
C    1.3047260369618641E+01    3.8974701229398576E+01   -1.0126188355367953E+01
C    1.4470578028833829E+01    3.9011461783624895E+01   -1.0075623586598720E+01
C    1.5153383743320138E+01    4.0219789705215021E+01   -1.0006257272693931E+01
C    1.6566801951711916E+01    4.0193879018121045E+01   -9.9429258339153428E+00
C    1.3054755421602669E+01    4.1456149137409028E+01   -1.0070844904253134E+01
C    1.4510542953759821E+01    4.1467457933716524E+01   -9.9655095964199898E+00
C    1.5238696393361250E+01    3.0317904675946618E+01   -1.0050585894818832E+01
C    1.6660662234598444E+01    3.0303623364009610E+01   -9.9956891716463616E+00
C    1.7340347925412281E+01    1.9260722210078473E+01   -1.0023811054262051E+01
C    1.8753108149394340E+01    1.9285188892945712E+01   -1.0070752879055581E+01
C    1.9464209577789173E+01    2.0518457664848782E+01   -1.0113985574741307E+01
C    2.0829860765628855E+01    2.0502396464970634E+01   -9.9580099072035573E+00
C    1.7327573870125082E+01    2.1705334690254404E+01   -1.0137887204389548E+01
C    1.8753498727164960E+01    2.1754086745697169E+01   -1.0125095063150118E+01
C    1.9473830413403093E+01    2.2992951737021581E+01   -1.0142526877296309E+01
C    2.0864930795435079E+01    2.2971495259506778E+01   -1.0044047262796074E+01
C    1.7368835307167817E+01    2.4185814784731701E+01   -1.0027571143117047E+01
C    1.8803594758724799E+01    2.4213810879526861E+01   -1.0063418319506759E+01
C    1.9456648210483742E+01    2.5444285531516936E+01   -9.9012384125953208E+00
C    2.0906478281977023E+01    2.5462224888358072E+01   -9.8393508465731703E+00
C    1.7371265591103707E+01    2.6615365012979584E+01   -9.9097493926964351E+00
C    1.8740763753507103E+01    2.6648329548334633E+01   -9.8083074455662533E+00
C    1.9465150772842755E+01    2.7871660103757410E+01   -9.8011316213741608E+00
C    2.0900915238884540E+01    2.7906104762481892E+01   -9.7778433576300543E+00
C    1.7356561338763420E+01    2.9063498786499146E+01   -9.9698624470670918E+00
C    1.8748438417313444E+01    2.9129964902702827E+01   -9.8893340403850747E+00
C    1.9424006671037802E+01    1.8003802608528794E+01   -1.0019105294732432E+01
C    2.0853432995576966E+01    1.7988498946056495E+01   -9.9936985081540008E+00
C    2.1522830523633328E+01    1.9223363909627032E+01   -9.9332322681095420E+00
C    2.2959085922412516E+01    1.9283480000301907E+01   -1.0031843174856004E+01
C    2.3720083310288196E+01    2.0468172124641676E+01   -9.9829700072844751E+00
C    2.5136924234013893E+01    2.0461824028021077E+01   -9.9201252722068674E+00
C    2.1571926971626265E+01    2.1770258310130455E+01   -9.9727343140798030E+00
C    2.2983877381229281E+01    2.1752232218826659E+01   -9.9844712154320163E+00
C    2.3684870480930758E+01    2.2959798454428878E+01   -9.9685761690085055E+00
C    2.5113992963142255E+01    2.2954750662012071E+01   -1.0067516766210659E+01
C    2.1571012846748424E+01    2.4233829823446772E+01   -9.9040181767328246E+00
C    2.2994730913070960E+01    2.4228341079570679E+01   -9.9214108568604313E+00
C    2.3723512022514633E+01    2.5449973313510327E+01   -9.8109365962063286E+00
C    2.5168455363095948E+01    2.5400102384877577E+01   -9.9407277645004815E+00
C    2.1606163500758633E+01    2.6687986777992869E+01   -9.7106383934037819E+00
C    2.3013373161836462E+01    2.6666289107589265E+01   -9.7010910066195652E+00
C    2.3749525149943789E+01    2.7919226816552676E+01   -9.6894439593920030E+00
C    2.5155477499008136E+01    2.7873840656291812E+01   -9.6807810683814033E+00
C    2.1603518582528459E+01    2.9122320126584043E+01   -9.7682247592426545E+00
C    2.3044806605259378E+01    2.9126740357063650E+01   -9.7281096293381726E+00
C    2.3710013427666166E+01    1.8032543955484481E+01   -1.0054354575604458E+01
C    2.5141212608968754E+01    1.8010884336646949E+01   -1.0032587777792534E+01
C    2.5871685336280095E+01    1.9185440805653485E+01   -9.9664529230374708E+00
C    2.7293840922236047E+01    1.9238122114702470E+01   -9.9075079513480890E+00
C    2.7984621265123316E+01    2.0476067015196392E+01   -1.0089745846682524E+01
C    2.9468795934930867E+01    2.0440002906879286E+01   -1.0198194267842698E+01
C    2.5839150096363969E+01    2.1713422768098372E+01   -1.0006032763273195E+01
C    2.7253805550411069E+01    2.1676223313322279E+01   -1.0145471334795420E+01
C    2.7973558210485226E+01    2.2885773825313695E+01   -1.0279194042853055E+01
C    2.9404910115220726E+01    2.2878072743531252E+01   -1.0434342063773784E+01
C    2.5840125880880340E+01    2.4162310238907516E+01   -1.0080816208550274E+01
C    2.7257393330219596E+01    2.4141265455862442E+01   -1.0180655674039860E+01
C    2.7997217434941049E+01    2.5360779794023397E+01   -1.0096583630416506E+01
C    2.9396790961162210E+01    2.5330270865209904E+01   -1.0215756654979199E+01
C    2.5886340952820394E+01    2.6634584311543215E+01   -9.8032192621462162E+00
C    2.7320614847432324E+01    2.6639964257969812E+01   -9.9177498483922868E+00
C    2.8059682090262903E+01    2.7865683579039434E+01   -9.8077325927714263E+00
C    2.9492796302546672E+01    2.7834028672000535E+01   -9.9664864646105702E+00
C    2.5873359533146793E+01    2.9101534977888981E+01   -9.7275028623117130E+00
C    2.7324474832046480E+01    2.9079523936737086E+01   -9.7419443015314062E+00
C    2.8039629160321908E+01    1.8003084668262609E+01   -9.8775355617733087E+00
C    2.9464091393479872E+01    1.7964144410374178E+01   -9.9094467417990764E+00
C    1.7388820906597047E+01    3.1555976292108266E+01   -9.9018919341272316E+00
C    1.8813301067442051E+01    3.1567117397982972E+01   -9.8789894530883764E+00
C    1.9477915960863669E+01    3.2767317519349248E+01   -9.7242113359513365E+00
C    2.0930859244582809E+01    3.2828554937760543E+01   -9.7435171501677953E+00
C    1.7381861500702303E+01    3.4051178624666321E+01   -9.7307662390608840E+00
C    1.8792454066850642E+01    3.4047678262041089E+01   -9.6349541776152403E+00
C    1.9475589250760361E+01    3.5318762966893551E+01   -9.6839093436532711E+00
C    2.0892181725625345E+01    3.5297819232737439E+01   -9.7549029363911792E+00
C    1.7335160621035335E+01    3.6526650281375446E+01   -9.8780617961360644E+00
C    1.8762597516705600E+01    3.6537450438859054E+01   -9.8087678304466994E+00
C    1.9460578011981724E+01    3.7766768207943137E+01   -9.8310696419537482E+00
C    2.0863626447680975E+01    3.7787010720634939E+01   -9.9472648831530446E+00
C    1.7336272649671532E+01    3.8973605559057276E+01   -9.9636495806585792E+00
C    1.8753249505694825E+01    3.9011481009176698E+01   -9.9566599367848685E+00
C    1.9453922683579329E+01    4.0218249983764700E+01   -1.0062821605916588E+01
C    2.0894246005586623E+01    4.0220491590873678E+01   -1.0182801253676228E+01
C    1.7299730319062174E+01    4.1468842598149855E+01   -9.9415097625156825E+00
C    1.8709457769376819E+01    4.1436296404878100E+01   -1.0014918680794878E+01
C    1.9484490340914920E+01    3.0357352067863598E+01   -9.9359067836114363E+00
C    2.0900693793305095E+01    3.0368177589865894E+01   -9.8437624641367165E+00
C    2.1662342554819347E+01    3.1622530442828257E+01   -9.7626640776188136E+00
C    2.3060968655263224E+01    3.1602117909218219E+01   -9.7855071246616490E+00
C    2.3725307460569397E+01    3.2849356271249739E+01   -9.7538806247905878E+00
C    2.5153380576226400E+01    3.2837986488602631E+01   -9.6276206178549835E+00
C    2.1632907761373534E+01    3.4078448379155382E+01   -9.7382029540628032E+00
C    2.3020419185233656E+01    3.4063416180436896E+01   -9.7249295646941221E+00
C    2.3715078133808468E+01    3.5338614125300488E+01   -9.8477643916303368E+00
C    2.5145759549250137E+01    3.5325047084223428E+01   -9.8127283977689945E+00
C    2.1563460216300154E+01    3.6577796539363604E+01   -9.8526137878729276E+00
C    2.3003576462086411E+01    3.6533699244684982E+01   -9.9680211137912824E+00
C    2.3762884056306163E+01    3.7754883736744858E+01   -1.0083909221443145E+01
C    2.5188509825071648E+01    3.7778048112661907E+01   -1.0047648865521561E+01
C    2.1608184035045600E+01    3.8994634539562895E+01   -1.0168336502489256E+01
C    2.3032507198918005E+01    3.8992008811491310E+01   -1.0142183903793448E+01
C    2.3761427641837741E+01    4.0210953940202160E+01   -1.0103100824072126E+01
C    2.5170723270654790E+01    4.0187881636823924E+01   -1.0086615007258320E+01
C    2.1616484984487897E+01    4.1439483340341589E+01   -1.0068816189479596E+01
C    2.3060183212718329E+01    4.1443832801671405E+01   -1.0065654652494180E+01
C    2.3737113260366382E+01    3.0368246693247539E+01   -9.7727383546087161E+00
C    2.5182755433241834E+01    3.0364744010099937E+01   -9.7353917490689756E+00
C    2.5901176387409603E+01    3.1595861215003836E+01   -9.6767836442051056E+00
C    2.7324780232378387E+01    3.1588629166400281E+01   -9.7228348146789152E+00
C    2.8020887202907183E+01    3.2851423922608276E+01   -9.8002039548887598E+00
C    2.9436714801769039E+01    3.2773190888471966E+01   -9.8894448644567206E+00
C    2.5890325346900340E+01    3.4085057644694210E+01   -9.7259328328154773E+00
C    2.7306978809840519E+01    3.4118119694728001E+01   -9.7354196806213888E+00
C    2.8048490685694837E+01    3.5308682820874196E+01   -9.8813774076514509E+00
C    2.9479694926302020E+01    3.5278933500406445E+01   -9.7941542070445440E+00
C    2.5900566367700605E+01    3.6499681086530174E+01   -9.9619700230040014E+00
C    2.7314654748899500E+01    3.6535260768490978E+01   -9.9737679516927038E+00
C    2.7999662839669302E+01    3.7790104033818530E+01   -9.9530916493728387E+00
C    2.9473649822595913E+01    3.7750123994684593E+01   -9.9858861478717031E+00
C    2.5902487263365597E+01    3.8996199142559924E+01   -1.0055785065976487E+01
C    2.7303712399958041E+01    3.8980333460401489E+01   -9.9603722529690213E+00
C    2.8026090793268828E+01    4.0205257381909988E+01   -9.8867465910854229E+00
C    2.9457929346864937E+01    4.0201749271882406E+01   -9.9238188949077770E+00
C    2.5859274662581473E+01    4.1425625874762638E+01   -9.9829222594407696E+00
C    2.7291699671906009E+01    4.1444032376833590E+01   -9.8495773579649253E+00
C    2.8043266299163843E+01    3.0341639623780186E+01   -9.7330949025989817E+00
C    2.9450246540279313E+01    3.0297484985593467E+01   -9.7929530654032266E+00
O    1.9751264432247581E+02    9.6785013360384369E+01   -6.5582375607125343E+00
H    1.9683538517082800E+02    9.7379444709451676E+01   -6.9982098488698661E+00
H    1.9738985525327232E+02    9.5923182332299959E+01   -7.0196465369198942E+00
O    1.9093457136085746E+02    6.0920095440931753E+01   -6.2490321084065963E+00
H    1.9076630782107208E+02    6.1045265974231910E+01   -5.2906011911809658E+00
H    1.9003669004611768E+02    6.1061437093927616E+01   -6.7103916658627556E+00
O    1.1487102772895386E+02    1.7386248096602395E+02    2.0698947239757179E-01
H    1.1573605252784951E+02    1.7410291662453162E+02    7.6318456423585912E-01
H    1.1409770575747531E+02    1.7409988069172294E+02    8.7451358020300052E-01
O    2.7407046848513056E+02    8.1047403973344160E+01    1.2240832695669404E+00
H    2.7359542052562745E+02    8.0400080396691934E+01    6.6590703378467098E-01
H    2.7445934841642713E+02    8.1734523408555646E+01    6.8122517387615578E-01
O    1.8042660323582993E+02    1.8405791500286099E+02    2.6864864655180773E+00
H    1.7989097716036972E+02    1.8331109408038364E+02    3.0591944490896230E+00
H    1.8069806237335865E+02    1.8349175256573031E+02    1.8662555576179023E+00
O    1.4695030258721692E+02    7.3185426567096201E+01   -2.6677703957835925E+00
H    1.4740213125152991E+02    7.4042306872379669E+01   -2.3832242542447934E+00
H    1.4624971707499500E+02    7.3514814892317304E+01   -3.3415447316919118E+00
O    2.1018784841911156E+02    9.9851189313175638E+01    4.5327032792134894E+00
H    2.0957248662858518E+02    1.0022262683910013E+02    3.8478763233082662E+00
H    2.0953580895978197E+02    9.9455583550381775E+01    5.1939849313547075E+00
O    1.5749184127302291E+02    3.9852201470965916E+01    6.2763845960524351E+00
H    1.5812834510563323E+02    3.9117622799208959E+01    6.2825164846066439E+00
H    1.5784357056640468E+02    4.0369224657121080E+01    5.4858324343498355E+00
O    6.3603228790263671E+01    1.7015270014926458E+02   -6.1493615077247448E+00
H    6.3543098458388108E+01    1.7024600400283546E+02   -5.1540385812740510E+00
H    6.4491493170546946E+01    1.6981852488701500E+02   -6.3867276827833779E+00
O    3.1478957465502350E+02    2.1228137418148310E+02   -5.1099055202653221E-01
H    3.1397748173072773E+02    2.1235417964480786E+02   -1.0486077376935761E+00
H    3.1450298854056575E+02    2.1227447668977098E+02    4.1822208537035094E-01
O    1.6091649804117259E+02    1.4566636001080730E+02    1.5857685440031473E+00
H    1.6140956260747677E+02    1.4516521169198944E+02    8.5505942136403512E-01
H    1.6026317986364876E+02    1.4633890181236839E+02    1.0325709884811847E+00
O    1.2576862302464511E+02    1.1441776916023895E+02    6.5626079755288504E+00
H    1.2509908423813333E+02    1.1438331131316139E+02    5.8509728960784377E+00
H    1.2589706812439222E+02    1.1539603335075699E+02    6.6346001399784553E+00
O    1.8310518155517320E+02    8.4813055359056207E+01   -6.2645145177650994E+00
H    1.8227536185842922E+02    8.5218530416297725E+01   -5.8777246823487159E+00
H    1.8275788570715591E+02    8.4143677387302148E+01   -6.8502455267450078E+00
O    2.2275575569482334E+02   -2.5508129304221896E+01   -1.6257883100776785E-01
H    2.2356528392592401E+02   -2.4971355550568948E+01    2.0565872124639878E-01
H    2.2312803410306120E+02   -2.5619365091983241E+01   -1.1376584712264075E+00
O    7.7368818609645203E+01    2.2826752343831936E+02    9.3927638035649341E+00
H    7.6453366701699181E+01    2.2870077659673129E+02    9.5782888716627745E+00
H    7.7386806152472261E+01    2.2826681700079942E+02    8.3520547454930458E+00
O    2.3603949578688002E+02    1.7037705925143462E+02    6.0731628087877212E+00
H    2.3622176703466150E+02    1.7058106901740587E+02    5.0753142329196139E+00
H    2.3614542003419598E+02    1.6942168966070938E+02    6.0160514055713703E+00
O    1.7187078060345658E+02    2.0679683335977506E+02    4.1470669085813885E+00
H    1.7104661253022311E+02    2.0656850457277983E+02    3.6422025713781836E+00
H    1.7198890384409930E+02    2.0601015764980977E+02    4.7705710847643710E+00
O    1.9441639386921528E+02    8.2886476291242758E+01    7.2011865520231639E+00
H    1.9365736558910123E+02    8.3268510496751674E+01    7.6235338536941715E+00
H    1.9391161047979818E+02    8.2537184050364147E+01    6.4165184962381403E+00
O    1.6135301470533892E+02    1.3926985001693757E+02   -6.3409972816269562E+00
H    1.6153792917488278E+02    1.3982971826797029E+02   -5.6012796457728937E+00