 # Version information for this restart file 
 # current date 2020-01-19 14:05:17.884
 # current working dir /scratch/snx3000/gtocci/gtocci/MEMBRANES/AIMD_US_IONS_BN/aimd_us_iodide/us_23
 # Program compiled at                              Fri Nov 22 15:19:42 CET 2019
 # Program compiled on                                                  daint102
 # Program compiled for                                   CRAY_XC50-gfortran_gpu
 # Source code revision number                                       git:a698b45
 &GLOBAL
   PRINT_LEVEL  LOW
   PROJECT_NAME BNS
   RUN_TYPE  MD
   WALLTIME 86400
 &END GLOBAL
 &MOTION
   &MD
     ENSEMBLE  NVT
     STEPS  2000
     TIMESTEP     9.9999999999999989E-01
     STEP_START_VAL  42990
     TIME_START_VAL     4.2989999999987609E+04
     ECONS_START_VAL    -8.4829516017192145E+03
     TEMPERATURE     3.0000000000000000E+02
     TEMP_KIND  T
     &BAROSTAT
       PRESSURE     1.0000000000000000E+00
       TIMECON     9.9999999999999986E+01
       VIRIAL  Z
     &END BAROSTAT
     &THERMOSTAT
       TYPE  NOSE
       REGION  GLOBAL
       &NOSE
         LENGTH  4
         TIMECON     9.9999999999999986E+01
         MTS  2
         &COORD
               3.6499778084415574E-01   -5.7267676058012293E+00    1.1229241529715058E+01    8.3649803706157293E+00
         &END COORD
         &VELOCITY
              -7.3826123932419209E-06    1.7169797938524247E-05    2.5930140915962554E-04   -3.7196130117806873E-04
         &END VELOCITY
         &MASS
               7.0145132684705392E+07    1.6237299232570693E+04    1.6237299232570693E+04    1.6237299232570693E+04
         &END MASS
         &FORCE
              -5.5509082081137425E-10    1.7694279818492350E-07   -5.8215211888855318E-08    8.7272069420624691E-09
         &END FORCE
       &END NOSE
     &END THERMOSTAT
     &AVERAGES  T
       &RESTART_AVERAGES
         ITIMES_START  1
         AVECPU     2.3914811009759291E+01
         AVEHUGONIOT     0.0000000000000000E+00
         AVETEMP_BARO     0.0000000000000000E+00
         AVEPOT    -8.4858179338985574E+03
         AVEKIN     2.0554925743339796E+00
         AVETEMP     3.0049650181825456E+02
         AVEKIN_QM     0.0000000000000000E+00
         AVETEMP_QM     0.0000000000000000E+00
         AVEVOL     2.2086622704881229E+05
         AVECELL_A     4.9287836997924948E+01
         AVECELL_B     4.7426456757032106E+01
         AVECELL_C     9.4486306644279694E+01
         AVEALPHA     9.0000000000000000E+01
         AVEBETA     9.0000000000000000E+01
         AVEGAMMA     9.0000000000000000E+01
         AVE_ECONS     6.1754212208547564E+01
         AVE_PRESS     0.0000000000000000E+00
         AVE_PXX     0.0000000000000000E+00
       &END RESTART_AVERAGES
     &END AVERAGES
     &PRINT
       &TEMP_KIND  SILENT
       &END TEMP_KIND
     &END PRINT
   &END MD
   &FREE_ENERGY
     &METADYN
       MIN_DISP    -1.0000000000000000E+00
       OLD_HILL_NUMBER  0
       OLD_HILL_STEP  0
       DO_HILLS  F
       STEP_START_VAL  42990
       NHILLS_START_VAL  0
       &METAVAR
         SCALE     1.0000000000000000E+00
         COLVAR  1
       &END METAVAR
       &PRINT
         &COLVAR  SILENT
           COMMON_ITERATION_LEVELS  3
           &EACH
             MD  1
           &END EACH
         &END COLVAR
       &END PRINT
     &END METADYN
   &END FREE_ENERGY
   &CONSTRAINT
     &COLLECTIVE
       COLVAR  1
       INTERMOLECULAR  T
       &RESTRAINT
         K     4.4625385281452931E-04
       &END RESTRAINT
     &END COLLECTIVE
     &COLVAR_RESTART
           2.1954184272137113E+01
     &END COLVAR_RESTART
   &END CONSTRAINT
   &PRINT
     &TRAJECTORY  SILENT
       &EACH
         MD  1
       &END EACH
     &END TRAJECTORY
     &VELOCITIES  SILENT
       &EACH
         MD  1
       &END EACH
     &END VELOCITIES
     &FORCES  SILENT
       UNIT eV*angstrom^-1
       &EACH
         MD  1
       &END EACH
     &END FORCES
     &RESTART  SILENT
       &EACH
         MD  1
       &END EACH
     &END RESTART
     &RESTART_HISTORY  SILENT
       &EACH
         MD  100
       &END EACH
     &END RESTART_HISTORY
   &END PRINT
 &END MOTION
 &FORCE_EVAL
   METHOD  QS
   &DFT
     BASIS_SET_FILE_NAME /users/gtocci/scratch_daint_3000/data_cp2k//BASIS_MOLOPT
     POTENTIAL_FILE_NAME /users/gtocci/scratch_daint_3000/data_cp2k//GTH_POTENTIALS
     WFN_RESTART_FILE_NAME ./BNS-RESTART.wfn
     CHARGE  -1
     &SCF
       MAX_SCF  10
       EPS_SCF     9.9999999999999995E-07
       SCF_GUESS  RESTART
       &OT  T
         MINIMIZER  DIIS
         PRECONDITIONER  FULL_KINETIC
       &END OT
       &OUTER_SCF  T
         EPS_SCF     9.9999999999999995E-07
         MAX_SCF  30
       &END OUTER_SCF
       &PRINT
         &RESTART  SILENT
           ADD_LAST  NUMERIC
           &EACH
             QS_SCF  50
           &END EACH
         &END RESTART
       &END PRINT
     &END SCF
     &QS
       MAP_CONSISTENT  T
       EXTRAPOLATION  ASPC
       EXTRAPOLATION_ORDER  4
     &END QS
     &MGRID
       NGRIDS  5
       CUTOFF     4.6000000000000000E+02
     &END MGRID
     &XC
       DENSITY_CUTOFF     1.0000000000000000E-10
       GRADIENT_CUTOFF     1.0000000000000000E-10
       TAU_CUTOFF     1.0000000000000000E-10
       &XC_GRID
         XC_DERIV  SPLINE2_SMOOTH
       &END XC_GRID
       &XC_FUNCTIONAL  NO_SHORTCUT
         &LIBXC  T
           FUNCTIONAL XC_GGA_X_OPTB88_VDW
         &END LIBXC
         &VWN  T
         &END VWN
       &END XC_FUNCTIONAL
       &VDW_POTENTIAL
         POTENTIAL_TYPE  NON_LOCAL
         &NON_LOCAL
           TYPE  DRSLL
           VERBOSE_OUTPUT  T
           KERNEL_FILE_NAME /users/gtocci/scratch_daint_3000/data_cp2k//vdW_kernel_table.dat
           CUTOFF     3.6000000000000000E+02
         &END NON_LOCAL
       &END VDW_POTENTIAL
     &END XC
     &REAL_TIME_PROPAGATION
       INITIAL_WFN  SCF_WFN
     &END REAL_TIME_PROPAGATION
     &PRINT
       &MULLIKEN  SILENT
         FILENAME =BNS.mulliken
       &END MULLIKEN
     &END PRINT
   &END DFT
   &SUBSYS
     &CELL
       A     2.6082000000000019E+01    0.0000000000000000E+00    0.0000000000000000E+00
       B     0.0000000000000000E+00    2.5097000000000001E+01    0.0000000000000000E+00
       C     0.0000000000000000E+00    0.0000000000000000E+00    5.0000000000000028E+01
       MULTIPLE_UNIT_CELL  1 1 1
     &END CELL
     &COORD
B   -5.4546769259108405E+00    8.7711431017177262E+00   -3.8644881982233926E+01
B   -3.3299710101366427E+00    1.0038960211765964E+01   -3.8578373113684698E+01
B   -5.4510562755170477E+00    1.1300031934157545E+01   -3.8536935921762947E+01
B   -3.2876822703065365E+00    1.2516255884291414E+01   -3.8563804317178572E+01
B   -5.4281115169704108E+00    1.3810635935305616E+01   -3.8561622753455865E+01
B   -3.2733097866924132E+00    1.5048709728215576E+01   -3.8595047706870204E+01
B   -5.4142522697047220E+00    1.6318825604133917E+01   -3.8598671741728083E+01
B   -3.2802062112212043E+00    1.7573170643967028E+01   -3.8582509585207085E+01
B   -5.4445944355079687E+00    1.8765368947845737E+01   -3.8711905560775705E+01
B   -3.3335886641742212E+00    2.0017202971848068E+01   -3.8809463577942076E+01
B   -1.1131429528489956E+00    8.7721084575561150E+00   -3.8544609464530176E+01
B    1.0390624145287253E+00    1.0051981995913632E+01   -3.8502269708941775E+01
B   -1.1181035866685038E+00    1.1261999202104954E+01   -3.8585809426770965E+01
B    1.0814115050100603E+00    1.2590258628238466E+01   -3.8503632711587365E+01
B   -1.1186778834727096E+00    1.3759548078888926E+01   -3.8548156064194032E+01
B    1.1099247221422981E+00    1.5105030637443631E+01   -3.8485272921462965E+01
B   -1.0807057369210544E+00    1.6302570787447614E+01   -3.8744459390932349E+01
B    1.1156037843541049E+00    1.7506344793021526E+01   -3.8706202133914005E+01
B   -1.0522866548780792E+00    1.8786562969868168E+01   -3.8916788315816270E+01
B    1.1174119109298724E+00    1.9982200353612726E+01   -3.8902165736364012E+01
B    3.2333176931674252E+00    8.8198748508423073E+00   -3.8486400828825019E+01
B    5.4461473139654837E+00    1.0015585836964911E+01   -3.8539374068991059E+01
B    3.1852191122952411E+00    1.1274985613792836E+01   -3.8447399625336253E+01
B    5.3853656089097681E+00    1.2532065441434177E+01   -3.8509334685296956E+01
B    3.2631248166279292E+00    1.3805741968383254E+01   -3.8486915672465940E+01
B    5.5101603783102000E+00    1.5055563422053419E+01   -3.8591272041313786E+01
B    3.2777543259387159E+00    1.6328554936265693E+01   -3.8616516058688561E+01
B    5.4934884729303697E+00    1.7481620159275632E+01   -3.8735511324866110E+01
B    3.2987777262813993E+00    1.8740113681398540E+01   -3.8727832466414043E+01
B    5.4600936150069446E+00    2.0002331733255176E+01   -3.8658229646792250E+01
N   -4.0427520963415997E+00    8.7820133715045881E+00   -3.8670431554659949E+01
N   -1.8586582901206632E+00    1.0027214397468114E+01   -3.8528411193184581E+01
N   -4.0486733158767345E+00    1.1319205920615715E+01   -3.8605669910954184E+01
N   -1.7942083569327110E+00    1.2527789403766180E+01   -3.8497524664527838E+01
N   -4.0019388351564116E+00    1.3769669048030453E+01   -3.8515254455002150E+01
N   -1.8395921754884716E+00    1.5084530753352347E+01   -3.8627278108980164E+01
N   -3.9801112784492725E+00    1.6284001440442015E+01   -3.8563938940599577E+01
N   -1.8512875908031314E+00    1.7546428761576742E+01   -3.8805869218351042E+01
N   -4.0146557551917050E+00    1.8756949321983843E+01   -3.8700925612012021E+01
N   -1.8237083069751709E+00    2.0018845122334483E+01   -3.9043188712465131E+01
N    3.3124816326205780E-01    8.7973905241183967E+00   -3.8378434229372168E+01
N    2.4877843677352796E+00    1.0046308983185360E+01   -3.8473119296195726E+01
N    3.1843808718729344E-01    1.1297054275909224E+01   -3.8633499998603675E+01
N    2.4722951418839627E+00    1.2558500540937757E+01   -3.8397529444870713E+01
N    3.6296747049383493E-01    1.3810224282798641E+01   -3.8536701533966003E+01
N    2.5384275436136892E+00    1.5057773259479625E+01   -3.8523887839533103E+01
N    3.8240094555348697E-01    1.6323236188175390E+01   -3.8548922395784601E+01
N    2.5348399981901140E+00    1.7546270391610356E+01   -3.8642707754469875E+01
N    3.7746432088990567E-01    1.8766218231603972E+01   -3.8971764766893195E+01
N    2.5565037590333097E+00    1.9986307304884814E+01   -3.8753294017261467E+01
N    4.7031735390870146E+00    8.8172829000163091E+00   -3.8517501741611269E+01
N    6.8596547656003981E+00    1.0019318043164327E+01   -3.8532180821795677E+01
N    4.6531111048116269E+00    1.1279455514090975E+01   -3.8585402496764615E+01
N    6.8794851535799513E+00    1.2537022526195203E+01   -3.8536585933033194E+01
N    4.7298532311621733E+00    1.3798363298965166E+01   -3.8480725678909295E+01
N    6.9590224479693195E+00    1.5071845533050972E+01   -3.8628340860016948E+01
N    4.7564022005136444E+00    1.6285225515964445E+01   -3.8747327796136091E+01
N    6.9426733478645435E+00    1.7525033771706738E+01   -3.8632320891188051E+01
N    4.7552160083322264E+00    1.8727980808662771E+01   -3.8750210396325741E+01
N    6.9710932815541957E+00    1.9996334684410286E+01   -3.8602458338939869E+01
B   -5.3911060978624743E+00    2.1290265676883084E+01   -3.8837523629625281E+01
B   -3.1981760005635484E+00    2.2573473089838753E+01   -3.8941643859397722E+01
B   -5.4137046440172822E+00    2.3764278235634045E+01   -3.8716973376677139E+01
B   -3.2163463700180186E+00    2.5081141787412076E+01   -3.8843582210276359E+01
B   -5.3996826420313111E+00    2.6298606887131861E+01   -3.8639744986914934E+01
B   -3.2773349600419972E+00    2.7565074206452536E+01   -3.8623592242720377E+01
B   -5.4726186198455666E+00    2.8787437832339407E+01   -3.8645675014126518E+01
B   -3.3016847992728602E+00    3.0067763226746383E+01   -3.8526837992918111E+01
B   -5.4033766876845588E+00    3.1317937626734494E+01   -3.8677967628126027E+01
B   -3.2655188020302472E+00    3.2609387353811925E+01   -3.8644063058982475E+01
B   -1.1210234847174378E+00    2.1206679215370016E+01   -3.8988089601975297E+01
B    1.1492151988849335E+00    2.2469088089744822E+01   -3.8892662524627447E+01
B   -1.0822563208732285E+00    2.3761978605968761E+01   -3.8930894368765188E+01
B    1.0793854731741734E+00    2.5033993748734961E+01   -3.8771005947747966E+01
B   -1.0851508514012693E+00    2.6288285153002931E+01   -3.8753422939875783E+01
B    1.0629992852523180E+00    2.7618450318512927E+01   -3.8602443393485260E+01
B   -1.1711449097842273E+00    2.8798617650488495E+01   -3.8603548322934557E+01
B    1.0272791357662223E+00    3.0122736325817030E+01   -3.8565865070480470E+01
B   -1.1218105626435928E+00    3.1389656801499463E+01   -3.8554215702599677E+01
B    1.0614885267329934E+00    3.2618539479762056E+01   -3.8510817658726367E+01
B    3.2989883832082447E+00    2.1254819786648522E+01   -3.8767302516331583E+01
B    5.4760489146454292E+00    2.2531145883506294E+01   -3.8957933264492361E+01
B    3.2684608298184954E+00    2.3817820463811259E+01   -3.8926600779953269E+01
B    5.4636806268299694E+00    2.5090849324580603E+01   -3.8928768801718284E+01
B    3.2204779995023829E+00    2.6371098979327634E+01   -3.8752968916766200E+01
B    5.4360179614327393E+00    2.7590263225302895E+01   -3.8765362768421774E+01
B    3.2252022826915705E+00    2.8841465602814004E+01   -3.8641592897682365E+01
B    5.3896490893299225E+00    3.0104433626050888E+01   -3.8607350167837424E+01
B    3.1937680363678567E+00    3.1354919720456007E+01   -3.8566309386970353E+01
B    5.3566842281124698E+00    3.2638680997833895E+01   -3.8471318399987638E+01
N   -3.9398510730463205E+00    2.1273529203290419E+01   -3.8887727460693512E+01
N   -1.7907666992806095E+00    2.2531794129722151E+01   -3.8931173873988612E+01
N   -3.9592795372121672E+00    2.3794194658042784E+01   -3.8914966673250895E+01
N   -1.7730324478192550E+00    2.5053741869154358E+01   -3.8710434906259259E+01
N   -3.9962151562746184E+00    2.6329099634764731E+01   -3.8788296443962764E+01
N   -1.8619169612448085E+00    2.7566344742538853E+01   -3.8580550699222997E+01
N   -4.0093994193877007E+00    2.8802118782047042E+01   -3.8532477712568131E+01
N   -1.8431847142250639E+00    3.0123170876329599E+01   -3.8551507777932919E+01
N   -3.9951636909691253E+00    3.1368079154771252E+01   -3.8663573152690567E+01
N   -1.8490815894559789E+00    3.2644902863866406E+01   -3.8516856122941533E+01
N    3.7543890779439998E-01    2.1238208733768072E+01   -3.8968652741709086E+01
N    2.6052957815586093E+00    2.2496335108170204E+01   -3.8926786854601893E+01
N    3.6032740235585514E-01    2.3790518621913854E+01   -3.8832225467538173E+01
N    2.5381412156411414E+00    2.5091516368015533E+01   -3.8829640472747641E+01
N    3.8479765091576595E-01    2.6322370368143265E+01   -3.8669738972829748E+01
N    2.5245574560993926E+00    2.7588434543945684E+01   -3.8631315663998258E+01
N    3.3423885347926974E-01    2.8812665275993222E+01   -3.8534936230752841E+01
N    2.4646878326325208E+00    3.0103425446714088E+01   -3.8632215959535877E+01
N    3.4860852368305922E-01    3.1404973665783231E+01   -3.8504977095561962E+01
N    2.5207898950509420E+00    3.2624523597166259E+01   -3.8537445201837748E+01
N    4.7399585768534687E+00    2.1269501410611209E+01   -3.8773609485538785E+01
N    6.9470681382084516E+00    2.2515139366028304E+01   -3.9047105332489650E+01
N    4.7372343903949723E+00    2.3791257840680029E+01   -3.8957196382280593E+01
N    6.8805700376193464E+00    2.5075939990643128E+01   -3.9049263723490071E+01
N    4.7081853496979944E+00    2.6373317485649480E+01   -3.8877647287443573E+01
N    6.8589569331416662E+00    2.7555456917938017E+01   -3.8852577268268419E+01
N    4.7030480764618563E+00    2.8850294690456373E+01   -3.8714266808338692E+01
N    6.8005443399251684E+00    3.0114648761845803E+01   -3.8585496166907120E+01
N    4.6694485976280617E+00    3.1375440402567612E+01   -3.8498788743021272E+01
N    6.8257836189584404E+00    3.2616914945759831E+01   -3.8500910946054965E+01
B    7.5491041691046119E+00    8.7621416375495933E+00   -3.8557813651747864E+01
B    9.7444451124009799E+00    1.0042679688055630E+01   -3.8446605621932953E+01
B    7.6041323424444451E+00    1.1286570259355937E+01   -3.8556063205326488E+01
B    9.7890469865230845E+00    1.2494499904543392E+01   -3.8509161780141220E+01
B    7.6101643494340818E+00    1.3741093207408923E+01   -3.8562773353995944E+01
B    9.8699704804947554E+00    1.5002169059681323E+01   -3.8591123342502058E+01
B    7.7117646515504852E+00    1.6304589388254382E+01   -3.8637792974112301E+01
B    9.9209950884622700E+00    1.7592885424548999E+01   -3.8609758272593197E+01
B    7.6839672575643529E+00    1.8723955376753555E+01   -3.8605053223130327E+01
B    9.8297678883135013E+00    2.0084758782053449E+01   -3.8633244352487431E+01
B    1.1953023635909259E+01    8.7870035419534638E+00   -3.8325090077414764E+01
B    1.4115289554944420E+01    1.0003749312552660E+01   -3.8251042684893648E+01
B    1.1924948571731196E+01    1.1279361653500979E+01   -3.8425606608162049E+01
B    1.4164953990898486E+01    1.2466228270946480E+01   -3.8387957781751467E+01
B    1.2025637220878014E+01    1.3733441898381676E+01   -3.8523995187443063E+01
B    1.4172353134739145E+01    1.4991432154995174E+01   -3.8534884123726179E+01
B    1.2054282023303355E+01    1.6284967053982339E+01   -3.8494301010861001E+01
B    1.4174865243243929E+01    1.7513276108575621E+01   -3.8627767252919405E+01
B    1.2016904361746835E+01    1.8831638110939227E+01   -3.8688194424467547E+01
B    1.4168015176936500E+01    2.0011730614496319E+01   -3.8575587076971551E+01
B    1.6292297998187891E+01    8.7204311398104846E+00   -3.8268834786749373E+01
B    1.8478541973442507E+01    1.0019834425332716E+01   -3.8409335221412199E+01
B    1.6318104219399569E+01    1.1256615745116779E+01   -3.8246938657597163E+01
B    1.8529734331347594E+01    1.2484450620409881E+01   -3.8348134112132193E+01
B    1.6325904975939942E+01    1.3732309670021252E+01   -3.8443637876341306E+01
B    1.8490061568768379E+01    1.4961082804734447E+01   -3.8686077254503658E+01
B    1.6318950452163193E+01    1.6205872780702034E+01   -3.8736347267674248E+01
B    1.8445995774594689E+01    1.7494985725616477E+01   -3.8764474841529683E+01
B    1.6331444309856174E+01    1.8759480864875407E+01   -3.8689697085191476E+01
B    1.8518453444951348E+01    2.0031587542364644E+01   -3.8796660313844960E+01
N    9.0200581986958497E+00    8.7868599830878438E+00   -3.8313154414925179E+01
N    1.1185285194437178E+01    1.0010868047492389E+01   -3.8501695816727143E+01
N    9.0343096410047661E+00    1.1260695650139565E+01   -3.8418149544839508E+01
N    1.1205593905702957E+01    1.2503869214923359E+01   -3.8499833868192042E+01
N    9.0801903501773857E+00    1.3748386441232492E+01   -3.8539454053332875E+01
N    1.1333377884986227E+01    1.5041499502544355E+01   -3.8567208175431183E+01
N    9.1422612466946553E+00    1.6265012599958606E+01   -3.8586046545477700E+01
N    1.1334847035440363E+01    1.7570258525375912E+01   -3.8578794392775031E+01
N    9.1634625638323417E+00    1.8813778876847291E+01   -3.8582644810834893E+01
N    1.1272562481139749E+01    2.0070464766031836E+01   -3.8701585206238619E+01
N    1.3383305079283563E+01    8.8006174927209226E+00   -3.8121847363055196E+01
N    1.5590820462878195E+01    9.9850636118414915E+00   -3.8219961431136994E+01
N    1.3378517305754286E+01    1.1248909896291526E+01   -3.8264312212481045E+01
N    1.5608324555834248E+01    1.2462735133166360E+01   -3.8329386161259862E+01
N    1.3469869637476119E+01    1.3703400100873719E+01   -3.8504434375828460E+01
N    1.5601211817937468E+01    1.4971997147816916E+01   -3.8653171487147610E+01
N    1.3535973699043856E+01    1.6217895977547013E+01   -3.8545591456222837E+01
N    1.5645680242611283E+01    1.7460156862041963E+01   -3.8645153249732985E+01
N    1.3455846999100345E+01    1.8740640909833282E+01   -3.8512273108708968E+01
N    1.5604086989534196E+01    2.0018243053865859E+01   -3.8643563375602945E+01
N    1.7749047855240164E+01    8.7679527009745986E+00   -3.8346165944901173E+01
N    1.9903823432980907E+01    1.0006894660860047E+01   -3.8545331841333656E+01
N    1.7760942114061596E+01    1.1296750636957606E+01   -3.8233179741915180E+01
N    1.9921285717753555E+01    1.2516082444459419E+01   -3.8522013169085731E+01
N    1.7780193250678533E+01    1.3762152776829598E+01   -3.8393808294930821E+01
N    1.9923592630581691E+01    1.5039121683580255E+01   -3.8541675888615210E+01
N    1.7751366580542211E+01    1.6251502876927823E+01   -3.8819709513854079E+01
N    1.9900751338462371E+01    1.7547507061137598E+01   -3.8617237443944497E+01
N    1.7775328170162322E+01    1.8749539248376120E+01   -3.8853223423895372E+01
N    1.9999964524782673E+01    2.0061017128680870E+01   -3.8777972665256272E+01
B    7.6853478909653115E+00    2.1295467548864870E+01   -3.8891330776915687E+01
B    9.8339073733913196E+00    2.2538639631938004E+01   -3.8899402044419553E+01
B    7.6120177697094018E+00    2.3797921932744519E+01   -3.9027004741728781E+01
B    9.7644074249206732E+00    2.5052010423410810E+01   -3.8949649450812167E+01
B    7.6262132080250336E+00    2.6335644303875441E+01   -3.9005113149447830E+01
B    9.7283778491118245E+00    2.7552495413063021E+01   -3.8705588614302926E+01
B    7.5409524142078244E+00    2.8830644906694161E+01   -3.8615745205233843E+01
B    9.7482528179508119E+00    3.0066083999186514E+01   -3.8442642714133704E+01
B    7.5348091183307879E+00    3.1337688712203033E+01   -3.8533726252123749E+01
B    9.7345972378803101E+00    3.2612983951917570E+01   -3.8447597868683438E+01
B    1.2005198710458673E+01    2.1326174891913119E+01   -3.8725280098421145E+01
B    1.4193307237436544E+01    2.2470826268367887E+01   -3.8749161532720102E+01
B    1.1975102773816809E+01    2.3839841311161788E+01   -3.8952117006304249E+01
B    1.4133187847072962E+01    2.4998303583525786E+01   -3.8873398695767527E+01
B    1.1950163829460125E+01    2.6302628578896460E+01   -3.8852411319871287E+01
B    1.4102536924820903E+01    2.7540682930352872E+01   -3.8855772165982160E+01
B    1.1928433435832984E+01    2.8780770727487347E+01   -3.8461905649061734E+01
B    1.4054977074841657E+01    3.0026687856219837E+01   -3.8493064063750388E+01
B    1.1904209153409276E+01    3.1355945227401740E+01   -3.8418461396471066E+01
B    1.4143760888962584E+01    3.2521810172403022E+01   -3.8206943210981144E+01
B    1.6350878597947091E+01    2.1243308492843020E+01   -3.8753725021631908E+01
B    1.8471925739905856E+01    2.2558408258211934E+01   -3.8777652186455086E+01
B    1.6328980559773505E+01    2.3775094843089740E+01   -3.8964841125934306E+01
B    1.8488743239854408E+01    2.5101424380904316E+01   -3.8958472302739999E+01
B    1.6294479148133149E+01    2.6348169529670010E+01   -3.8997747886163445E+01
B    1.8478157540681764E+01    2.7545960756906705E+01   -3.8743507923940889E+01
B    1.6293714113940162E+01    2.8916530660561566E+01   -3.8713220373064345E+01
B    1.8524598026421238E+01    3.0060721879254864E+01   -3.8618318158015569E+01
B    1.6309034784177548E+01    3.1315723205872096E+01   -3.8354779238396709E+01
B    1.8477953899860715E+01    3.2571171053394764E+01   -3.8430410671901186E+01
N    9.1371817404815658E+00    2.1301992891845437E+01   -3.8850616892869105E+01
N    1.1289106274978121E+01    2.2565908759121328E+01   -3.8970373986690859E+01
N    9.0545564858424061E+00    2.3786939360601426E+01   -3.8979109455423298E+01
N    1.1205673974048171E+01    2.5076569638723615E+01   -3.8846907266071376E+01
N    9.0350087047605836E+00    2.6291638183040050E+01   -3.8920995169588025E+01
N    1.1188395003677146E+01    2.7537806757589941E+01   -3.8680009104497692E+01
N    9.0014694758384035E+00    2.8794825825855145E+01   -3.8563526300271654E+01
N    1.1228262671738147E+01    3.0057667945750605E+01   -3.8342725350318908E+01
N    9.0320499787288213E+00    3.1333973526271393E+01   -3.8530999686083440E+01
N    1.1222978341614251E+01    3.2620127295010228E+01   -3.8429868972679074E+01
N    1.3422896711377845E+01    2.1236545667724844E+01   -3.8649414278722318E+01
N    1.5633303964381229E+01    2.2490340341250779E+01   -3.8791745287231706E+01
N    1.3435938681199834E+01    2.3762621823798113E+01   -3.8862455474561969E+01
N    1.5612847849933246E+01    2.5042817594229358E+01   -3.8865099407872179E+01
N    1.3386551427710042E+01    2.6264656036347805E+01   -3.8924245974998477E+01
N    1.5565061556546507E+01    2.7624558893957758E+01   -3.8846762023346123E+01
N    1.3362799668888901E+01    2.8748845917745861E+01   -3.8567962281707850E+01
N    1.5534580182803765E+01    3.0089875090016836E+01   -3.8450634160993722E+01
N    1.3327639508051236E+01    3.1329394093783137E+01   -3.8317980329074366E+01
N    1.5546390614819908E+01    3.2520067547010257E+01   -3.8155046034245629E+01
N    1.7776188353931872E+01    2.1279871613195343E+01   -3.8783698100183997E+01
N    1.9949710930251186E+01    2.2510496591151796E+01   -3.8736330223676433E+01
N    1.7765066429729796E+01    2.3797812147418369E+01   -3.8966037060718136E+01
N    1.9942079167933347E+01    2.5021322755669644E+01   -3.8608998779222937E+01
N    1.7764172928876189E+01    2.6350707982140992E+01   -3.9075021029722642E+01
N    1.9908173559025307E+01    2.7558050765227311E+01   -3.8664655961294834E+01
N    1.7749200679657594E+01    2.8837728386056799E+01   -3.8765541586953702E+01
N    1.9955422915653394E+01    3.0045510789124720E+01   -3.8648838002418024E+01
N    1.7754331484537889E+01    3.1306035832552688E+01   -3.8495579487121461E+01
N    1.9900985769864281E+01    3.2564333282071672E+01   -3.8526559156378475E+01
O    3.1437303122671949E+01    7.0459947296551002E+00   -3.0725885836337547E+01
H    3.1135494774539204E+01    7.7646236180920809E+00   -3.1284519542095868E+01
H    3.2390890466315696E+01    7.2276508241597082E+00   -3.0868709815258658E+01
O   -2.1449786812502718E+00   -1.6239042549040700E+01   -2.7581803255840882E+01
H   -1.1445916737233650E+00   -1.6096711336965292E+01   -2.7445721907255031E+01
H   -2.2847493391263605E+00   -1.7145922960656691E+01   -2.7814017114182018E+01
O    1.6830542340603188E+01    2.9505565112497867E+00   -3.4907654111181564E+01
H    1.7211111119447011E+01    3.3976283103951985E+00   -3.4084950848228253E+01
H    1.6034875377964159E+01    3.4193018374800799E+00   -3.5345224324067416E+01
O    3.0111049293694975E+01    5.0043163349159087E+01   -2.0689386394780453E+01
H    2.9160884677397391E+01    5.0116123716897185E+01   -2.0953429953775402E+01
H    3.0078956802695195E+01    4.9196259621836710E+01   -2.0164003272441718E+01
O    2.3347634444466475E+01   -5.5907095351859375E+01   -3.3586043787791525E+01
H    2.2482780875948777E+01   -5.6154407917732151E+01   -3.3993378837773804E+01
H    2.3102643585774850E+01   -5.5010862128901067E+01   -3.3147556292186010E+01
O    1.8002184648940133E+01   -3.3428952812250948E+01   -2.2075835207491998E+01
H    1.7317149443902004E+01   -3.2676978105335195E+01   -2.2029943800535843E+01
H    1.8872836842721753E+01   -3.3048859614484783E+01   -2.1815698966128402E+01
O    6.0300607795763206E+01    5.3193156619992443E+01   -2.2236694903174797E+01
H    5.9393935991609510E+01    5.2774877202897976E+01   -2.1967685564577454E+01
H    6.0799216705033260E+01    5.2420601085086588E+01   -2.2620171323369984E+01
O   -5.7459357695172830E+00    1.2828701519468904E+01   -2.3472007929268027E+01
H   -5.4220259827397834E+00    1.3277549417552370E+01   -2.2657827442797650E+01
H   -6.0588913892024534E+00    1.3544332921287781E+01   -2.4098997690986138E+01
O    5.9658627512137357E+01    9.9437268987497485E-01   -3.0101278128614698E+01
H    5.9544575213495023E+01    9.6411148271109881E-01   -3.1052887899273525E+01
H    5.8850039670243170E+01    6.2159039006524353E-01   -2.9693367359952543E+01
O    6.6213163976517905E+01    4.9770224932742613E+00   -3.1543381235268349E+01
H    6.6046950722044528E+01    5.0685264287301663E+00   -3.0590940453971101E+01
H    6.7170935144601316E+01    5.3058536390809792E+00   -3.1671739635859549E+01
O    3.5318029987118720E+01    2.1974282883663094E+00   -3.5590262540968205E+01
H    3.4877072030737537E+01    2.2401423759059824E+00   -3.4656366479148105E+01
H    3.4634696171291850E+01    2.5493191029383127E+00   -3.6201747108557150E+01
O   -2.0387267977582187E+01   -2.0867882659734050E+01   -2.7799195595755783E+01
H   -2.0893336437021407E+01   -2.1397328680620696E+01   -2.8485290045408714E+01
H   -2.0500263440195607E+01   -2.1397789284433880E+01   -2.6925636207501920E+01
O    3.6633589361078030E+01   -3.6435069644218380E+01   -3.3600133002904769E+01
H    3.5947548952665294E+01   -3.6704182161079842E+01   -3.4346196704715290E+01
H    3.7505051968439624E+01   -3.6858503305668698E+01   -3.3596875359918876E+01
O    8.3352396043155878E+01    6.2004668159122955E-01   -2.6696041979154948E+01
H    8.3773648695394073E+01    1.7154306219015071E-02   -2.6062752223266720E+01
H    8.2515026778484000E+01    1.5999829925431286E-01   -2.6896031671380616E+01
O   -1.5365332444533135E+00   -6.5414576971921562E+01   -3.2751020499495915E+01
H   -2.3138432557984299E+00   -6.6042116084423000E+01   -3.2617695749210817E+01
H   -2.0685131523069309E+00   -6.4480606664595015E+01   -3.2660240144109444E+01
O    1.9963274461353492E+01   -3.7040292135938522E+00   -3.5717394127071643E+01
H    2.0334287783418564E+01   -4.5381762022591410E+00   -3.6024028274824893E+01
H    1.9024246696684671E+01   -3.9391582592339378E+00   -3.5700558542932974E+01
O   -7.6764954710352811E+00    3.8196615898243573E+00   -2.5687866518951051E+01
H   -6.7059414561140640E+00    3.8804592105192208E+00   -2.5565966997996505E+01
H   -8.0362414723146287E+00    4.8197550729886043E+00   -2.5594164536131025E+01
O    2.6316452550471528E+01    6.8389123185315803E+00   -2.1330813701177433E+01
H    2.6537140948572063E+01    7.7631552868830571E+00   -2.1378049385201990E+01
H    2.6981023852887159E+01    6.3187359133269005E+00   -2.1778412079342058E+01
O    2.6664876756212298E+01   -2.4651239578523278E+01   -2.8834276083165637E+01