 # Version information for this restart file 
 # current date 2020-08-12 22:08:28.246
 # current working dir /scratch/snx3000/gtocci/gtocci/MEMBRANES/AIMD_US_IONS_BN/aimd_us_pot/us_10
 # Program compiled at                              Fri Nov 22 15:19:42 CET 2019
 # Program compiled on                                                  daint102
 # Program compiled for                                   CRAY_XC50-gfortran_gpu
 # Source code revision number                                       git:a698b45
 &GLOBAL
   PRINT_LEVEL  LOW
   PROJECT_NAME BNS
   RUN_TYPE  MD
   WALLTIME 86400
 &END GLOBAL
 &MOTION
   &MD
     ENSEMBLE  NVT
     STEPS  2000
     TIMESTEP     9.9999999999999989E-01
     STEP_START_VAL  37385
     TIME_START_VAL     3.7384999999996246E+04
     ECONS_START_VAL    -8.4995352978816481E+03
     TEMPERATURE     3.0000000000000000E+02
     TEMP_KIND  T
     &BAROSTAT
       PRESSURE     1.0000000000000000E+00
       TIMECON     9.9999999999999986E+01
       VIRIAL  Z
     &END BAROSTAT
     &THERMOSTAT
       TYPE  NOSE
       REGION  GLOBAL
       &NOSE
         LENGTH  4
         TIMECON     9.9999999999999986E+01
         MTS  2
         &COORD
               2.5905163869438730E-01   -5.5186496351126975E+00    2.9357489597882342E+01   -8.3137612568251260E+00
         &END COORD
         &VELOCITY
              -3.3101661847247856E-06    1.2069030880376431E-04   -5.6842781906334247E-04    6.0860306343748020E-05
         &END VELOCITY
         &MASS
               7.0145132684705392E+07    1.6237299232570693E+04    1.6237299232570693E+04    1.6237299232570693E+04
         &END MASS
         &FORCE
               7.8333744288429119E-10   -1.1174909113564754E-08   -4.3943863210957082E-08    2.6460017163500293E-07
         &END FORCE
       &END NOSE
     &END THERMOSTAT
     &AVERAGES  T
       &RESTART_AVERAGES
         ITIMES_START  1
         AVECPU     3.8710090226002102E+01
         AVEHUGONIOT     0.0000000000000000E+00
         AVETEMP_BARO     0.0000000000000000E+00
         AVEPOT    -8.5024922565181296E+03
         AVEKIN     2.0524555128359987E+00
         AVETEMP     3.0005250782511013E+02
         AVEKIN_QM     0.0000000000000000E+00
         AVETEMP_QM     0.0000000000000000E+00
         AVEVOL     2.2086622704880577E+05
         AVECELL_A     4.9287836997924984E+01
         AVECELL_B     4.7426456757032106E+01
         AVECELL_C     9.4486306644279694E+01
         AVEALPHA     9.0000000000000000E+01
         AVEBETA     9.0000000000000000E+01
         AVEGAMMA     9.0000000000000000E+01
         AVE_ECONS     1.2064357437441913E+01
         AVE_PRESS     0.0000000000000000E+00
         AVE_PXX     0.0000000000000000E+00
       &END RESTART_AVERAGES
     &END AVERAGES
     &PRINT
       &TEMP_KIND  SILENT
       &END TEMP_KIND
     &END PRINT
   &END MD
   &FREE_ENERGY
     &METADYN
       MIN_DISP    -1.0000000000000000E+00
       OLD_HILL_NUMBER  0
       OLD_HILL_STEP  0
       DO_HILLS  F
       STEP_START_VAL  37385
       NHILLS_START_VAL  0
       &METAVAR
         SCALE     1.0000000000000000E+00
         COLVAR  1
       &END METAVAR
       &PRINT
         &COLVAR  SILENT
           COMMON_ITERATION_LEVELS  3
           &EACH
             MD  1
           &END EACH
         &END COLVAR
       &END PRINT
     &END METADYN
   &END FREE_ENERGY
   &CONSTRAINT
     &COLLECTIVE
       COLVAR  1
       INTERMOLECULAR  T
       &RESTRAINT
         K     4.4625385281452931E-04
       &END RESTRAINT
     &END COLLECTIVE
     &COLVAR_RESTART
           9.6709644083804367E+00
     &END COLVAR_RESTART
   &END CONSTRAINT
   &PRINT
     &TRAJECTORY  SILENT
       &EACH
         MD  1
       &END EACH
     &END TRAJECTORY
     &VELOCITIES  SILENT
       &EACH
         MD  1
       &END EACH
     &END VELOCITIES
     &FORCES  SILENT
       UNIT eV*angstrom^-1
       &EACH
         MD  1
       &END EACH
     &END FORCES
     &RESTART  SILENT
       &EACH
         MD  1
       &END EACH
     &END RESTART
     &RESTART_HISTORY  SILENT
       &EACH
         MD  100
       &END EACH
     &END RESTART_HISTORY
   &END PRINT
 &END MOTION
 &FORCE_EVAL
   METHOD  QS
   &DFT
     BASIS_SET_FILE_NAME /users/gtocci/softwares/data_cp2k//BASIS_MOLOPT
     POTENTIAL_FILE_NAME /users/gtocci/softwares/data_cp2k//GTH_POTENTIALS
     WFN_RESTART_FILE_NAME ./BNS-RESTART.wfn
     CHARGE  1
     &SCF
       MAX_SCF  10
       EPS_SCF     9.9999999999999995E-07
       SCF_GUESS  RESTART
       &OT  T
         MINIMIZER  DIIS
         PRECONDITIONER  FULL_KINETIC
       &END OT
       &OUTER_SCF  T
         EPS_SCF     9.9999999999999995E-07
         MAX_SCF  30
       &END OUTER_SCF
       &PRINT
         &RESTART  SILENT
           ADD_LAST  NUMERIC
           &EACH
             QS_SCF  50
           &END EACH
         &END RESTART
       &END PRINT
     &END SCF
     &QS
       MAP_CONSISTENT  T
       EXTRAPOLATION  ASPC
       EXTRAPOLATION_ORDER  4
     &END QS
     &MGRID
       NGRIDS  5
       CUTOFF     4.6000000000000000E+02
     &END MGRID
     &XC
       DENSITY_CUTOFF     1.0000000000000000E-10
       GRADIENT_CUTOFF     1.0000000000000000E-10
       TAU_CUTOFF     1.0000000000000000E-10
       &XC_GRID
         XC_DERIV  SPLINE2_SMOOTH
       &END XC_GRID
       &XC_FUNCTIONAL  NO_SHORTCUT
         &LIBXC  T
           FUNCTIONAL XC_GGA_X_OPTB88_VDW
         &END LIBXC
         &VWN  T
         &END VWN
       &END XC_FUNCTIONAL
       &VDW_POTENTIAL
         POTENTIAL_TYPE  NON_LOCAL
         &NON_LOCAL
           TYPE  DRSLL
           VERBOSE_OUTPUT  T
           KERNEL_FILE_NAME /users/gtocci/softwares/data_cp2k//vdW_kernel_table.dat
           CUTOFF     3.6000000000000000E+02
         &END NON_LOCAL
       &END VDW_POTENTIAL
     &END XC
     &REAL_TIME_PROPAGATION
       INITIAL_WFN  SCF_WFN
     &END REAL_TIME_PROPAGATION
     &PRINT
       &MULLIKEN  SILENT
         FILENAME =BNS.mulliken
       &END MULLIKEN
     &END PRINT
   &END DFT
   &SUBSYS
     &CELL
       A     2.6082000000000019E+01    0.0000000000000000E+00    0.0000000000000000E+00
       B     0.0000000000000000E+00    2.5097000000000001E+01    0.0000000000000000E+00
       C     0.0000000000000000E+00    0.0000000000000000E+00    5.0000000000000028E+01
       MULTIPLE_UNIT_CELL  1 1 1
     &END CELL
     &COORD
B   -2.3770386568171715E+00    2.4025781557650863E+00   -2.1346615453946800E+01
B   -1.6435801956404109E-01    3.6404834012401488E+00   -2.1306975901482268E+01
B   -2.3705190209797147E+00    4.8793281085407365E+00   -2.1339281459688568E+01
B   -2.1073015194143394E-01    6.1718244828594164E+00   -2.1208867770155081E+01
B   -2.3387788932249873E+00    7.4184395094954541E+00   -2.1264750093094445E+01
B   -1.7642185494862905E-01    8.6811219255435326E+00   -2.1212540123171500E+01
B   -2.3962958364096840E+00    9.8856392672422562E+00   -2.1208416827377544E+01
B   -2.0768510851290445E-01    1.1140599710925221E+01   -2.1154990503153520E+01
B   -2.3840957222181802E+00    1.2440063865671421E+01   -2.1241823931823127E+01
B   -1.9776937326313740E-01    1.3665838748413169E+01   -2.1286475933874804E+01
B    1.9802873832474428E+00    2.3632919451133607E+00   -2.1469625518303378E+01
B    4.1683603050906122E+00    3.6306632172448059E+00   -2.1529257127836566E+01
B    1.9801501667200609E+00    4.8709770915852220E+00   -2.1525071645559098E+01
B    4.1642423476072583E+00    6.1803188910004607E+00   -2.1413374295331014E+01
B    1.9879215074775167E+00    7.4099725746635183E+00   -2.1337568170786945E+01
B    4.1834501268066377E+00    8.6316402648008417E+00   -2.1312992282711580E+01
B    1.9744553971309748E+00    9.8819539861845822E+00   -2.1141691050637899E+01
B    4.1888945585269610E+00    1.1126736894707612E+01   -2.1393243527924916E+01
B    2.0161797645988573E+00    1.2378876956768186E+01   -2.1158299474672695E+01
B    4.1961755948685235E+00    1.3618593268210915E+01   -2.1380549806872168E+01
B    6.3078562676345875E+00    2.3222996461235779E+00   -2.1440075421555004E+01
B    8.4786045079732109E+00    3.6532933993913921E+00   -2.1366462257689903E+01
B    6.3209640959693019E+00    4.8960501827196969E+00   -2.1419291357230119E+01
B    8.5103725451694388E+00    6.1515400375143114E+00   -2.1491635461842460E+01
B    6.2949430581491415E+00    7.4250885073211892E+00   -2.1334720126111073E+01
B    8.5222805323100825E+00    8.6254214464074472E+00   -2.1500961054814351E+01
B    6.3734485603487050E+00    9.9370724669671198E+00   -2.1511936779262307E+01
B    8.5230144607442195E+00    1.1135855317491105E+01   -2.1389450156272510E+01
B    6.2928503437517440E+00    1.2408400869223540E+01   -2.1347053279439908E+01
B    8.4331636052472607E+00    1.3629026589427518E+01   -2.1315810423441516E+01
N   -9.4291961877358210E-01    2.4085314721359570E+00   -2.1355919466404174E+01
N    1.3161634303525545E+00    3.6330903739238192E+00   -2.1344317439176567E+01
N   -9.2162180045753295E-01    4.9149310390246193E+00   -2.1238806148920389E+01
N    1.2422718880549279E+00    6.1198965420878233E+00   -2.1427531256022206E+01
N   -8.8831893707836695E-01    7.4269567101241538E+00   -2.1212525309954472E+01
N    1.2522820216825530E+00    8.6584425459754861E+00   -2.1346143180039753E+01
N   -9.4925347071200183E-01    9.9400420009526922E+00   -2.1192814050945319E+01
N    1.2649229350964890E+00    1.1136513893092753E+01   -2.1164866001648686E+01
N   -9.0916725997679171E-01    1.2384601988059472E+01   -2.1237402346257227E+01
N    1.2672636702364088E+00    1.3670135991138894E+01   -2.1250487358526478E+01
N    3.4629706650845988E+00    2.3398805340483091E+00   -2.1548823792146770E+01
N    5.6320009599920793E+00    3.6302731329604296E+00   -2.1423257952343182E+01
N    3.4306157969338087E+00    4.8627876850354559E+00   -2.1663648585236658E+01
N    5.5907340404355157E+00    6.1524002861016243E+00   -2.1279831114773362E+01
N    3.4456730993513141E+00    7.3764099877839788E+00   -2.1272396347209416E+01
N    5.6549328388835312E+00    8.7119586194005940E+00   -2.1290781897048412E+01
N    3.4281208420302316E+00    9.8480378001682158E+00   -2.1327266140531989E+01
N    5.5870216544844400E+00    1.1167196053582980E+01   -2.1461273293905329E+01
N    3.4340175840505145E+00    1.2363111595506497E+01   -2.1382268220464699E+01
N    5.6100709398658424E+00    1.3660940389694483E+01   -2.1379045863347308E+01
N    7.7635477070450136E+00    2.3617887980314589E+00   -2.1356664961459895E+01
N    9.9536915002913187E+00    3.6720397867778134E+00   -2.1234166022565081E+01
N    7.7727129217396218E+00    4.9071782336858538E+00   -2.1411698675279904E+01
N    9.9908841339947934E+00    6.1563328200041596E+00   -2.1347123501367932E+01
N    7.7996033942170868E+00    7.3946027438669928E+00   -2.1494231248894639E+01
N    9.9395623713754269E+00    8.6291862922470894E+00   -2.1496609166876659E+01
N    7.8290163905914048E+00    9.8977784223309744E+00   -2.1515922827127508E+01
N    9.9759818895318109E+00    1.1120698930523606E+01   -2.1506134254594791E+01
N    7.7450559768879019E+00    1.2357302446243708E+01   -2.1130015391084218E+01
N    9.8773393934142870E+00    1.3635558397693929E+01   -2.1449126018005426E+01
B   -2.3566432451429318E+00    1.4967485997550478E+01   -2.1317190988703558E+01
B   -1.6956473459801516E-01    1.6186768489501880E+01   -2.1504804523586554E+01
B   -2.4277185075673646E+00    1.7407754654929299E+01   -2.1452076525992357E+01
B   -1.9132497116726738E-01    1.8673929173598882E+01   -2.1614027797266580E+01
B   -2.3728819110847974E+00    1.9928437877527873E+01   -2.1576251904774200E+01
B   -1.9612944429214879E-01    2.1203830693070717E+01   -2.1472893876263818E+01
B   -2.3867284009932073E+00    2.2396212389954378E+01   -2.1472009429526640E+01
B   -1.8177111609902410E-01    2.3692877966570162E+01   -2.1457137382890977E+01
B   -2.3208476626335157E+00    2.4933320107822617E+01   -2.1426142669166115E+01
B   -2.1254365431597383E-01    2.6221801538735114E+01   -2.1466766596168029E+01
B    1.9662895399004097E+00    1.4869325661646698E+01   -2.1433007820084288E+01
B    4.1709826808154951E+00    1.6160595833618491E+01   -2.1491865803949178E+01
B    1.9354037742516783E+00    1.7431172785422394E+01   -2.1454725850071068E+01
B    4.1231100009981088E+00    1.8692459969870480E+01   -2.1432623185602914E+01
B    1.9990334190752119E+00    1.9936254078562346E+01   -2.1400753681864455E+01
B    4.1877954092823693E+00    2.1227085615449464E+01   -2.1356933130874648E+01
B    1.9233511372795511E+00    2.2450466424685974E+01   -2.1372680498946831E+01
B    4.1594896582685621E+00    2.3651271966556536E+01   -2.1444460862053823E+01
B    1.9708695121093218E+00    2.4988912398472038E+01   -2.1520457858615952E+01
B    4.1659319245908755E+00    2.6154711040336814E+01   -2.1465671536142416E+01
B    6.3287181473207461E+00    1.4947764235169398E+01   -2.1380977770308100E+01
B    8.5127584044233924E+00    1.6149380980729386E+01   -2.1335000203926803E+01
B    6.3610500920013173E+00    1.7422518393430984E+01   -2.1394927664521070E+01
B    8.5244551855916093E+00    1.8681666098571277E+01   -2.1344603525138840E+01
B    6.2802372782829821E+00    1.9923141591380492E+01   -2.1284141415309186E+01
B    8.5064204753374035E+00    2.1150316358392367E+01   -2.1174761571460508E+01
B    6.3576977939481205E+00    2.2467340399474075E+01   -2.1251163860874620E+01
B    8.5575182402313992E+00    2.3747182673825733E+01   -2.1245921642075714E+01
B    6.3294815225158141E+00    2.4938253258911754E+01   -2.1284873199525158E+01
B    8.5093319353236971E+00    2.6229810795951273E+01   -2.1362682296421486E+01
N   -8.9753038942653129E-01    1.4964993931027537E+01   -2.1396204988975565E+01
N    1.2421125401051405E+00    1.6168588389827271E+01   -2.1527262853067203E+01
N   -9.7984536624821617E-01    1.7437047609164445E+01   -2.1486705513003326E+01
N    1.3006138719870541E+00    1.8677594707192682E+01   -2.1575991539318142E+01
N   -9.0407222636072349E-01    1.9927193293531889E+01   -2.1660187049809736E+01
N    1.2171388076253280E+00    2.1155866478333241E+01   -2.1386518904431412E+01
N   -8.9839097926412192E-01    2.2417952537929846E+01   -2.1426896866433403E+01
N    1.2615523404876743E+00    2.3677887945850017E+01   -2.1453188815138532E+01
N   -9.0414924968308841E-01    2.4971106198591713E+01   -2.1597304423555265E+01
N    1.2506442305532826E+00    2.6189466842889921E+01   -2.1555055269725379E+01
N    3.4167481428615774E+00    1.4872521166171952E+01   -2.1440473625789100E+01
N    5.6134241720907276E+00    1.6176376695718343E+01   -2.1433632909272241E+01
N    3.4019907733767227E+00    1.7426013372161787E+01   -2.1426887856664859E+01
N    5.5881498509809449E+00    1.8655135673162235E+01   -2.1510260810180441E+01
N    3.4262010581429401E+00    1.9961086737429969E+01   -2.1283747162606993E+01
N    5.6291490367787915E+00    2.1199422257972397E+01   -2.1299823992900521E+01
N    3.4188473997653142E+00    2.2399231831655442E+01   -2.1479079603833966E+01
N    5.6126831122975762E+00    2.3668461401702270E+01   -2.1412533336631665E+01
N    3.4384087030132062E+00    2.4942601677970714E+01   -2.1441215987523847E+01
N    5.6202515207326060E+00    2.6160668111531095E+01   -2.1338697100281138E+01
N    7.7669612124383862E+00    1.4876876525769495E+01   -2.1404291170756832E+01
N    9.9643561692643150E+00    1.6168814924218463E+01   -2.1357828511867691E+01
N    7.8138164788068796E+00    1.7393781092763767E+01   -2.1466775989385411E+01
N    9.9599649784181530E+00    1.8664003294148134E+01   -2.1343052658632175E+01
N    7.7187313258516150E+00    1.9894918358146256E+01   -2.1230064582015498E+01
N    9.9504707452850365E+00    2.1143700775492334E+01   -2.1125249610779161E+01
N    7.8050010440631059E+00    2.2468703679945747E+01   -2.1114408864553059E+01
N    9.9749829779396588E+00    2.3694362963508731E+01   -2.1380149681210888E+01
N    7.7689210552665369E+00    2.4959204547471039E+01   -2.1270646320137374E+01
N    9.9567304315797696E+00    2.6223102780775015E+01   -2.1366771891439257E+01
B    1.0665348280425016E+01    2.3804628556748288E+00   -2.1464884614919182E+01
B    1.2896940194183191E+01    3.5936493600784085E+00   -2.1537819081726049E+01
B    1.0716038177699510E+01    4.9143310240205444E+00   -2.1440230572450325E+01
B    1.2867692824447444E+01    6.1402105585510354E+00   -2.1397323438507044E+01
B    1.0664600377523442E+01    7.3854143297127957E+00   -2.1473890660314641E+01
B    1.2856511281299515E+01    8.6499965147023978E+00   -2.1398372179052689E+01
B    1.0738702268854126E+01    9.8648844083733032E+00   -2.1456817148683669E+01
B    1.2867978309372292E+01    1.1162856832586536E+01   -2.1489388162744657E+01
B    1.0589458215420285E+01    1.2390459888444198E+01   -2.1500451450512013E+01
B    1.2841875169383119E+01    1.3654836623544877E+01   -2.1649270120143754E+01
B    1.5018803844362106E+01    2.3487927843568772E+00   -2.1289020401220963E+01
B    1.7231713587341222E+01    3.6245540812560311E+00   -2.1366567583892813E+01
B    1.5041436445822390E+01    4.8425908248872638E+00   -2.1417491958202298E+01
B    1.7188012224387979E+01    6.1776721189780419E+00   -2.1677290774939951E+01
B    1.5045376100545168E+01    7.4023147767754134E+00   -2.1528234855072711E+01
B    1.7226984747293329E+01    8.6252668675061823E+00   -2.1805309512402186E+01
B    1.5022963208113142E+01    9.8953720259613309E+00   -2.1520719762062278E+01
B    1.7144729453551058E+01    1.1059997969895552E+01   -2.1419683785816410E+01
B    1.5052329727586757E+01    1.2431276801426993E+01   -2.1480769592239042E+01
B    1.7200404918173881E+01    1.3649458605909969E+01   -2.1286884968001143E+01
B    1.9399029475171524E+01    2.3413613043374948E+00   -2.1253002266547334E+01
B    2.1527417976525903E+01    3.6097693823175825E+00   -2.1398099626673762E+01
B    1.9429584492649614E+01    4.8771646855367328E+00   -2.1510299453818071E+01
B    2.1562933652239220E+01    6.1610649588715232E+00   -2.1553016571181630E+01
B    1.9326667354432360E+01    7.3578714791063371E+00   -2.1729158934686133E+01
B    2.1505329900306499E+01    8.6417796937429383E+00   -2.1432052427669703E+01
B    1.9391790053997639E+01    9.8865425636043316E+00   -2.1538794356268593E+01
B    2.1571577575209229E+01    1.1120442090604215E+01   -2.1316232837349073E+01
B    1.9381558826295851E+01    1.2298300585206706E+01   -2.1289098013280398E+01
B    2.1514813728497924E+01    1.3694854979429437E+01   -2.1248736175714484E+01
N    1.2113849500836235E+01    2.3882748755329106E+00   -2.1567656487019068E+01
N    1.4330221057596640E+01    3.5786086491822209E+00   -2.1476345249823549E+01
N    1.2142623154519958E+01    4.8478096932852512E+00   -2.1494357293385562E+01
N    1.4353910807538881E+01    6.1587398722716218E+00   -2.1444443445130091E+01
N    1.2121522113629624E+01    7.4215656522000186E+00   -2.1434188979323903E+01
N    1.4278004467098253E+01    8.6502111335814167E+00   -2.1500969664597250E+01
N    1.2158293257269925E+01    9.9429816806750804E+00   -2.1472150618796672E+01
N    1.4294861375191795E+01    1.1169302049161081E+01   -2.1469637942540853E+01
N    1.2130287084150421E+01    1.2422741172093147E+01   -2.1516084760136195E+01
N    1.4295374515591472E+01    1.3668952759635991E+01   -2.1584942936600513E+01
N    1.6529887052803733E+01    2.3781461370586729E+00   -2.1239930588863828E+01
N    1.8724150528351014E+01    3.6114566398993930E+00   -2.1437250896007409E+01
N    1.6500893552968066E+01    4.8778040574978068E+00   -2.1541420054861639E+01
N    1.8671605020026046E+01    6.1043927889975258E+00   -2.1707481304290294E+01
N    1.6492031460364348E+01    7.3931524240350281E+00   -2.1824498738888803E+01
N    1.8659200207305496E+01    8.6629491991948875E+00   -2.1839925036429470E+01
N    1.6416069300786322E+01    9.8605429891334655E+00   -2.1468353963073149E+01
N    1.8614959961956213E+01    1.1102495896809955E+01   -2.1446391486536132E+01
N    1.6450898617093738E+01    1.2379687846285165E+01   -2.1266013472581104E+01
N    1.8642422578942870E+01    1.3608516094446893E+01   -2.1247230654214619E+01
N    2.0827449575254214E+01    2.3683011239566016E+00   -2.1192239957466025E+01
N    2.2990421318769695E+01    3.6304042210590524E+00   -2.1346897337605963E+01
N    2.0840195167407931E+01    4.8420930429662512E+00   -2.1533959611993904E+01
N    2.3057114591121447E+01    6.1197113679710045E+00   -2.1439917910366145E+01
N    2.0800479267704503E+01    7.3587517255040149E+00   -2.1672300929847026E+01
N    2.2950387678335215E+01    8.6188618021145302E+00   -2.1246001821887326E+01
N    2.0814917469887316E+01    9.8778583449799289E+00   -2.1436722805429302E+01
N    2.2971577832369064E+01    1.1162988942970404E+01   -2.1285032279602110E+01
N    2.0816028985152922E+01    1.2355177840785581E+01   -2.1335768265461365E+01
N    2.2940387200590429E+01    1.3660137416702392E+01   -2.1213649478518899E+01
B    1.0675548843774409E+01    1.4859527014086712E+01   -2.1487346715250727E+01
B    1.2878574897489019E+01    1.6171870188577675E+01   -2.1529332293475434E+01
B    1.0725331013026574E+01    1.7387373789551773E+01   -2.1342372009605565E+01
B    1.2858685862727350E+01    1.8708969878135573E+01   -2.1274653544011294E+01
B    1.0680864055398979E+01    1.9887813387424163E+01   -2.1143980439348965E+01
B    1.2836885584563586E+01    2.1211415793978350E+01   -2.1128117330160908E+01
B    1.0693402896303933E+01    2.2408462652252311E+01   -2.1228451356172783E+01
B    1.2850864287749095E+01    2.3716872774648383E+01   -2.1282788594277545E+01
B    1.0689591129466796E+01    2.4950457662994094E+01   -2.1396552673813027E+01
B    1.2861102672713157E+01    2.6269231623702090E+01   -2.1438840185334605E+01
B    1.5035833672651687E+01    1.4953555298943350E+01   -2.1485412664231369E+01
B    1.7144794113068851E+01    1.6160332144450820E+01   -2.1449951604455137E+01
B    1.4964956774626616E+01    1.7477735291058803E+01   -2.1367883129806021E+01
B    1.7178538444550572E+01    1.8671020697797196E+01   -2.1374198172820520E+01
B    1.5076483061960907E+01    1.9956356166267430E+01   -2.1134861522002627E+01
B    1.7172031895885066E+01    2.1213918808722482E+01   -2.1199169570063354E+01
B    1.5015025586352202E+01    2.2460780549746588E+01   -2.1063270968857339E+01
B    1.7179291224230475E+01    2.3809207513672533E+01   -2.1053093423280274E+01
B    1.4982862312506235E+01    2.4983652550939063E+01   -2.1167759439771309E+01
B    1.7185282017137705E+01    2.6258676141386335E+01   -2.1075679712313871E+01
B    1.9350931761594875E+01    1.4884505728781333E+01   -2.1385244605461992E+01
B    2.1477354150203048E+01    1.6209914076771067E+01   -2.1411131329259888E+01
B    1.9297176232122709E+01    1.7412083582115134E+01   -2.1538189312254108E+01
B    2.1487324243849145E+01    1.8696276857213014E+01   -2.1616829944599317E+01
B    1.9314020991554859E+01    1.9934629074430514E+01   -2.1417444084041225E+01
B    2.1502110805100635E+01    2.1213561868783643E+01   -2.1445234882096997E+01
B    1.9309878258224096E+01    2.2495132368475822E+01   -2.1327296004823051E+01
B    2.1560359215153387E+01    2.3737808221163302E+01   -2.1262919846935812E+01
B    1.9369642428025831E+01    2.5008442164392704E+01   -2.1190903849999614E+01
B    2.1551470929099153E+01    2.6187736833470474E+01   -2.1221674012631411E+01
N    1.2142387100844756E+01    1.4954453305121932E+01   -2.1702754959729646E+01
N    1.4285499314913125E+01    1.6200448599301321E+01   -2.1363783945951553E+01
N    1.2174265158385912E+01    1.7422221386141253E+01   -2.1437521008818397E+01
N    1.4328449495124890E+01    1.8731254581022579E+01   -2.1255658280559178E+01
N    1.2148692839801887E+01    1.9904868708616277E+01   -2.1087836349536328E+01
N    1.4313828391440920E+01    2.1234932130887444E+01   -2.0953146408547500E+01
N    1.2117086977896282E+01    2.2466346954097837E+01   -2.1245600331495897E+01
N    1.4292730286373388E+01    2.3708993936304566E+01   -2.1163584550335397E+01
N    1.2122019670442835E+01    2.4991430940984433E+01   -2.1435299096648350E+01
N    1.4300875906036071E+01    2.6262948424977068E+01   -2.1390322268640386E+01
N    1.6409313173205451E+01    1.4855552495113878E+01   -2.1439335181727170E+01
N    1.8590787206462480E+01    1.6132281839149325E+01   -2.1487050252271931E+01
N    1.6421512020229887E+01    1.7436767677571389E+01   -2.1447038886301801E+01
N    1.8607984212421780E+01    1.8693844958804156E+01   -2.1460941087910690E+01
N    1.6512631060003642E+01    1.9991200511478386E+01   -2.1215064962194429E+01
N    1.8597930031340379E+01    2.1201402522963548E+01   -2.1280789631906547E+01
N    1.6488843147799983E+01    2.2493723888642641E+01   -2.1003211608605167E+01
N    1.8623420724236365E+01    2.3755489163442117E+01   -2.1218200197396925E+01
N    1.6450428484623007E+01    2.4993990032655045E+01   -2.0980722199819390E+01
N    1.8615830004463035E+01    2.6211928512878686E+01   -2.1094148351426522E+01
N    2.0786764721684964E+01    1.4928033363225211E+01   -2.1353334028126586E+01
N    2.2947600243508735E+01    1.6211620424610707E+01   -2.1377450536025439E+01
N    2.0735209881664762E+01    1.7451559835012549E+01   -2.1633855085595371E+01
N    2.2913820056854792E+01    1.8711190610446252E+01   -2.1529550015895925E+01
N    2.0763213693978319E+01    1.9969540090241718E+01   -2.1533133040372949E+01
N    2.2962272820285982E+01    2.1143636018276503E+01   -2.1521969950403655E+01
N    2.0787558847975923E+01    2.2472669025987763E+01   -2.1308312290436206E+01
N    2.3018453253271971E+01    2.3711598552303506E+01   -2.1427583217479441E+01
N    2.0832290150545838E+01    2.4981616857448820E+01   -2.1230727378232668E+01
N    2.3024123438207091E+01    2.6215784457896401E+01   -2.1300792859377868E+01
O    1.1827437597001637E+01    1.7774700146041603E+01   -1.5710652121288740E+01
H    1.2350544447426056E+01    1.6973726010244658E+01   -1.5520888861813846E+01
H    1.1253910390161133E+01    1.7370939516366118E+01   -1.6383162367104934E+01
O   -2.2391291940536060E+01    2.4373040243965384E+01   -1.0128194430417537E+01
H   -2.3286934161665574E+01    2.4277859115354513E+01   -9.7843782250135618E+00
H   -2.2270275883488516E+01    2.3614619159961034E+01   -1.0776850223187827E+01
O    5.5274806654205271E+01   -4.6811628084959658E+01   -1.5240765029903155E+01
H    5.5581492992687394E+01   -4.6413923789353277E+01   -1.4378779943374949E+01
H    5.4359037124415956E+01   -4.7068304053595320E+01   -1.5220174013346679E+01
O    1.0641481046985170E+02   -4.4197123785857023E+01   -1.1308112619921946E+01
H    1.0723764964305701E+02   -4.4156551159183266E+01   -1.1848630139360008E+01
H    1.0608888265824298E+02   -4.3284758206994638E+01   -1.1161531659446959E+01
O    6.9181716484484610E+01    2.9049794328757642E+01   -9.1411075632834091E+00
H    6.8482487972689398E+01    2.9277112844312846E+01   -9.7707591430931711E+00
H    6.8929675940030393E+01    2.9330933866060825E+01   -8.2677314995306066E+00
O    1.5007361412689223E+01   -2.2518535891773239E+00   -1.4096131374923443E+01
H    1.5401800736228475E+01   -2.7600824324638760E+00   -1.4790938477740173E+01
H    1.4945946309420476E+01   -1.3332212761524558E+00   -1.4430258157804627E+01
O    4.7234455826126592E+01    5.1634845278318018E+00   -1.7593322410430851E+01
H    4.7052404784055341E+01    6.0583209435971330E+00   -1.8018951474713365E+01
H    4.6379630823792859E+01    4.8125777666447584E+00   -1.7238989401104483E+01
O   -5.1912087768003438E+01   -4.7011115463525179E+01   -1.5274602681845186E+01
H   -5.1831442073201075E+01   -4.6369682745182267E+01   -1.4526197195206150E+01
H   -5.2618029205470542E+01   -4.7608031749844272E+01   -1.4977823235282868E+01
O    1.5032031454075574E+01    7.5534092544016247E+01   -9.0477671296496194E+00
H    1.4873723905471174E+01    7.4645361198145665E+01   -8.7009873957168971E+00
H    1.4583220953378305E+01    7.6076724500727067E+01   -8.3560099564674388E+00
O    2.4329880740103111E+01    6.7866960463329193E+01   -1.5881647719498135E+01
H    2.5048842622127392E+01    6.7208181915995596E+01   -1.5951486443674177E+01
H    2.3694084888330213E+01    6.7319400341254294E+01   -1.6476387071756932E+01
O    3.6365940089309170E+00   -1.5587783401703490E+01   -1.4161836210083894E+01
H    3.2898616944762691E+00   -1.5045949098398239E+01   -1.4885003850086912E+01
H    4.6262918658393826E+00   -1.5380885104982394E+01   -1.4104541881279779E+01
O    1.0739462129064860E+01    6.6930930081072532E+01   -1.8145131720362379E+01
H    1.0686553248784145E+01    6.7819907913050017E+01   -1.8504461833434878E+01
H    1.1589615859205647E+01    6.6468879921712229E+01   -1.8344036080876613E+01
O    4.3275129080794414E+01    4.7438803198506683E+01   -9.7457373189453840E+00
H    4.3870680480079926E+01    4.6651321840001188E+01   -9.9972985582418818E+00
H    4.3701908037489417E+01    4.7610645051038524E+01   -8.8902605195641762E+00
O    8.3081236388900734E+01    6.2900569819445940E+00   -5.4637407922883998E+00
H    8.3653377545394179E+01    5.7656107413148083E+00   -4.8864577677912315E+00
H    8.3332296114834676E+01    7.2705981165728009E+00   -5.2736868957250911E+00
O    5.2719285829423379E+00    2.2209072909504059E+01   -4.1452364596130131E+00
H    5.1780615473384204E+00    2.1469202267959261E+01   -3.4930092153653045E+00
H    5.8080069855532983E+00    2.1777685500626504E+01   -4.8772291825335978E+00
O   -1.7476731262309787E+01    5.0905881188636734E+01   -1.0948707015593230E+01
H   -1.7916493737691098E+01    5.1212599991098315E+01   -1.0056861010059306E+01
H   -1.6686896695647981E+01    5.0339971426084709E+01   -1.0834310548619772E+01
O   -2.2391686753053449E+01    8.6164213912046712E+00   -1.1373127801366284E+01
H   -2.1426265898352401E+01    8.5616243372335887E+00   -1.1172201197505617E+01
H   -2.2493336333470722E+01    9.2391375379206515E+00   -1.2126289725248718E+01
O    3.8312949496026000E+01    1.3924580310360675E+01   -2.4739936484667897E+00
H    3.8459411165952488E+01    1.3676923355394749E+01   -1.5241011814536254E+00
H    3.7271332192856192E+01    1.4010523736222767E+01   -2.5724687081294118E+00
O    3.0706346187398097E+01   -3.4980271256324563E+01   -9.4881061445570296E+00
H    3.1416946465019087E+01   -3.5485751345709907E+01   -8.9226841830770312E+00