 # Version information for this restart file 
 # current date 2020-04-18 20:43:43.517
 # current working dir /scratch/snx3000/gtocci/gtocci/MEMBRANES/AIMD_US_IONS_GRA/us_aimd_new/us_27
 # Program compiled at                              Fri Nov 22 15:19:42 CET 2019
 # Program compiled on                                                  daint102
 # Program compiled for                                   CRAY_XC50-gfortran_gpu
 # Source code revision number                                       git:a698b45
 &GLOBAL
   PRINT_LEVEL  LOW
   PROJECT_NAME GRAS
   RUN_TYPE  MD
   WALLTIME 86400
 &END GLOBAL
 &MOTION
   &MD
     ENSEMBLE  NVT
     STEPS  2000
     TIMESTEP     9.9999999999999989E-01
     STEP_START_VAL  76050
     TIME_START_VAL     7.6049999999936510E+04
     ECONS_START_VAL    -8.3019229805295799E+03
     TEMPERATURE     3.0000000000000000E+02
     TEMP_KIND  T
     &BAROSTAT
       PRESSURE     1.0000000000000000E+00
       TIMECON     9.9999999999999986E+01
       VIRIAL  Z
     &END BAROSTAT
     &THERMOSTAT
       TYPE  NOSE
       REGION  GLOBAL
       &NOSE
         LENGTH  4
         TIMECON     9.9999999999999986E+01
         MTS  2
         &COORD
               6.6537953327090338E-02   -1.5672188408495764E+01   -1.2679746708501202E+01    1.4006530103865032E+01
         &END COORD
         &VELOCITY
               2.3696567286537749E-06   -6.1760253018817803E-05    2.1628881267048394E-05    5.9153658743987758E-05
         &END VELOCITY
         &MASS
               7.0145132684705392E+07    1.6237299232570693E+04    1.6237299232570693E+04    1.6237299232570693E+04
         &END MASS
         &FORCE
              -4.0227978193387727E-10   -3.4252034439759309E-08   -5.4695684997156674E-08   -5.8042205345240988E-08
         &END FORCE
       &END NOSE
     &END THERMOSTAT
     &AVERAGES  T
       &RESTART_AVERAGES
         ITIMES_START  1
         AVECPU     3.0982486308109202E+01
         AVEHUGONIOT     0.0000000000000000E+00
         AVETEMP_BARO     0.0000000000000000E+00
         AVEPOT    -8.3067250371209357E+03
         AVEKIN     2.0524749757468208E+00
         AVETEMP     3.0004349183220984E+02
         AVEKIN_QM     0.0000000000000000E+00
         AVETEMP_QM     0.0000000000000000E+00
         AVEVOL     2.1331414786626332E+05
         AVECELL_A     4.8437460238122028E+01
         AVECELL_B     4.6608961231948342E+01
         AVECELL_C     9.4486306644281314E+01
         AVEALPHA     9.0000000000000043E+01
         AVEBETA     9.0000000000000043E+01
         AVEGAMMA     9.0000000000000043E+01
         AVE_ECONS    -5.3380742558162012E+02
         AVE_PRESS     0.0000000000000000E+00
         AVE_PXX     0.0000000000000000E+00
       &END RESTART_AVERAGES
     &END AVERAGES
     &PRINT
       &TEMP_KIND  SILENT
       &END TEMP_KIND
     &END PRINT
   &END MD
   &FREE_ENERGY
     &METADYN
       MIN_DISP    -1.0000000000000000E+00
       OLD_HILL_NUMBER  0
       OLD_HILL_STEP  0
       DO_HILLS  F
       STEP_START_VAL  76050
       NHILLS_START_VAL  0
       &METAVAR
         SCALE     1.0000000000000000E+00
         COLVAR  1
       &END METAVAR
       &PRINT
         &COLVAR  SILENT
           COMMON_ITERATION_LEVELS  3
           &EACH
             MD  1
           &END EACH
         &END COLVAR
       &END PRINT
     &END METADYN
   &END FREE_ENERGY
   &CONSTRAINT
     &COLLECTIVE
       COLVAR  1
       INTERMOLECULAR  T
       &RESTRAINT
         K     4.4625385281452931E-04
       &END RESTRAINT
     &END COLLECTIVE
     &COLVAR_RESTART
           2.5511302793956190E+01
     &END COLVAR_RESTART
   &END CONSTRAINT
   &PRINT
     &TRAJECTORY  SILENT
       &EACH
         MD  1
       &END EACH
     &END TRAJECTORY
     &VELOCITIES  SILENT
       &EACH
         MD  1
       &END EACH
     &END VELOCITIES
     &FORCES  SILENT
       UNIT eV*angstrom^-1
       &EACH
         MD  1
       &END EACH
     &END FORCES
     &RESTART  SILENT
       &EACH
         MD  1
       &END EACH
     &END RESTART
     &RESTART_HISTORY  SILENT
       &EACH
         MD  100
       &END EACH
     &END RESTART_HISTORY
   &END PRINT
 &END MOTION
 &FORCE_EVAL
   METHOD  QS
   &DFT
     BASIS_SET_FILE_NAME /users/gtocci/scratch_daint_3000/data_cp2k//BASIS_MOLOPT
     POTENTIAL_FILE_NAME /users/gtocci/scratch_daint_3000/data_cp2k//GTH_POTENTIALS
     WFN_RESTART_FILE_NAME ./GRAS-RESTART.wfn
     CHARGE  -1
     &SCF
       MAX_SCF  10
       EPS_SCF     9.9999999999999995E-07
       SCF_GUESS  RESTART
       &OT  T
         MINIMIZER  DIIS
         PRECONDITIONER  FULL_KINETIC
       &END OT
       &OUTER_SCF  T
         EPS_SCF     9.9999999999999995E-07
         MAX_SCF  30
       &END OUTER_SCF
       &PRINT
         &RESTART  SILENT
           ADD_LAST  NUMERIC
           &EACH
             QS_SCF  50
           &END EACH
         &END RESTART
       &END PRINT
     &END SCF
     &QS
       MAP_CONSISTENT  T
       EXTRAPOLATION  ASPC
       EXTRAPOLATION_ORDER  4
     &END QS
     &MGRID
       NGRIDS  5
       CUTOFF     4.6000000000000000E+02
     &END MGRID
     &XC
       DENSITY_CUTOFF     1.0000000000000000E-10
       GRADIENT_CUTOFF     1.0000000000000000E-10
       TAU_CUTOFF     1.0000000000000000E-10
       &XC_GRID
         XC_DERIV  SPLINE2_SMOOTH
       &END XC_GRID
       &XC_FUNCTIONAL  NO_SHORTCUT
         &LIBXC  T
           FUNCTIONAL XC_GGA_X_OPTB88_VDW
         &END LIBXC
         &VWN  T
         &END VWN
       &END XC_FUNCTIONAL
       &VDW_POTENTIAL
         POTENTIAL_TYPE  NON_LOCAL
         &NON_LOCAL
           TYPE  DRSLL
           VERBOSE_OUTPUT  T
           KERNEL_FILE_NAME /users/gtocci/scratch_daint_3000/data_cp2k//vdW_kernel_table.dat
         &END NON_LOCAL
       &END VDW_POTENTIAL
     &END XC
     &REAL_TIME_PROPAGATION
       INITIAL_WFN  SCF_WFN
     &END REAL_TIME_PROPAGATION
     &PRINT
       &MULLIKEN  SILENT
         FILENAME =GRAS.mulliken
       &END MULLIKEN
     &END PRINT
   &END DFT
   &SUBSYS
     &CELL
       A     2.5632000000000001E+01    0.0000000000000000E+00    0.0000000000000000E+00
       B     0.0000000000000000E+00    2.4664400000000022E+01    0.0000000000000000E+00
       C     0.0000000000000000E+00    0.0000000000000000E+00    5.0000000000000028E+01
       MULTIPLE_UNIT_CELL  1 1 1
     &END CELL
     &COORD
C    9.8303571341748093E+00   -1.4796086153983325E+01    9.5919708456075448E+00
C    1.1254192951435956E+01   -1.4779893832984772E+01    9.7343987055161811E+00
C    1.1929867345977929E+01   -1.3542475686226592E+01    9.7278361082890878E+00
C    1.3367772572201948E+01   -1.3525329812180784E+01    9.9529580762202574E+00
C    9.8588871852932307E+00   -1.2311990887163091E+01    9.6064616745523299E+00
C    1.1267949925887850E+01   -1.2321560909713959E+01    9.6363143142752890E+00
C    1.1974643050937468E+01   -1.1071509334259638E+01    9.5953707692875447E+00
C    1.3420279136403968E+01   -1.1055064768792143E+01    9.6629483592545906E+00
C    9.8173594128584796E+00   -9.8486105784800113E+00    9.6690016803539365E+00
C    1.1251135588103899E+01   -9.8772129634066292E+00    9.5859344641498883E+00
C    1.1987475007323800E+01   -8.6218152011209472E+00    9.6512835154835397E+00
C    1.3399722991894839E+01   -8.6223640214489183E+00    9.6956485520337097E+00
C    9.8207287868049704E+00   -7.3950329505351808E+00    9.6881088541311939E+00
C    1.1272077051445118E+01   -7.4041624789222213E+00    9.6123710610634774E+00
C    1.1977537534036822E+01   -6.1490389158604417E+00    9.5107654161913739E+00
C    1.3386288044144445E+01   -6.1916193477399775E+00    9.4389258189356351E+00
C    9.8666053476714914E+00   -4.9228303079120401E+00    9.5231873272461893E+00
C    1.1256198249617716E+01   -4.9155012330600814E+00    9.5400002551007468E+00
C    1.1977568129987164E+01   -1.6022369971195708E+01    9.8491253093118392E+00
C    1.3425799712699254E+01   -1.5991376661594943E+01    9.9511240413908730E+00
C    1.4072242954356115E+01   -1.4755232029510189E+01    9.9502396691911272E+00
C    1.5495795965986405E+01   -1.4765487760936418E+01    1.0003540820337903E+01
C    1.6266942889112812E+01   -1.3536369157035828E+01    9.9721013985888884E+00
C    1.7700822403047528E+01   -1.3516418990351244E+01    1.0071830008163952E+01
C    1.4120295657829885E+01   -1.2300485837939142E+01    9.8708752331975766E+00
C    1.5547173040540040E+01   -1.2335671388542805E+01    9.8796488207415933E+00
C    1.6184312388376014E+01   -1.1074368108890855E+01    9.7191270905241947E+00
C    1.7623824111836498E+01   -1.1054865516584716E+01    9.7632086475769633E+00
C    1.4119099823422378E+01   -9.8213371693682596E+00    9.6802444611568408E+00
C    1.5506867360920923E+01   -9.7803621027193905E+00    9.6725423152088545E+00
C    1.6203786275256046E+01   -8.5794771180316403E+00    9.6860852632720764E+00
C    1.7665551129494652E+01   -8.5864665451528452E+00    9.7402824925168243E+00
C    1.4143810845056191E+01   -7.3787551954489317E+00    9.5968215638291987E+00
C    1.5589162040789455E+01   -7.3605023582294091E+00    9.5680604832871605E+00
C    1.6270231801249800E+01   -6.1229781120126896E+00    9.5861676865234973E+00
C    1.7698280244803811E+01   -6.1246940385978794E+00    9.6273975219013010E+00
C    1.4071428775204369E+01   -4.9403356326810721E+00    9.4065722636456606E+00
C    1.5499362011691407E+01   -4.9227282949837265E+00    9.4600156165798399E+00
C    1.6242513119778327E+01   -1.5991869727454016E+01    1.0106146454966765E+01
C    1.7633523546791839E+01   -1.5984080428532858E+01    1.0062759123018061E+01
C    1.8436465914064563E+01   -1.4767363146175761E+01    1.0106914425509339E+01
C    1.9796107181384148E+01   -1.4768767398492363E+01    1.0207565219759211E+01
C    2.0442218713249794E+01   -1.3501141896163922E+01    1.0243365817228867E+01
C    2.1916491032228443E+01   -1.3501836811323169E+01    1.0360226017780546E+01
C    1.8341903165345613E+01   -1.2287953580047988E+01    9.9221499131263862E+00
C    1.9775262121610965E+01   -1.2309911873380397E+01    1.0082388271842925E+01
C    2.0498218977886470E+01   -1.1093817184693151E+01    1.0120557899998206E+01
C    2.1870113392163738E+01   -1.1088012595678798E+01    1.0342322918399290E+01
C    1.8365294270111868E+01   -9.8221303894777119E+00    9.8301190598360702E+00
C    1.9816467731613002E+01   -9.8546419247513519E+00    9.9487837542479429E+00
C    2.0528921513135256E+01   -8.5878960170528806E+00    9.9974879032196693E+00
C    2.1938929994531492E+01   -8.6224637996854465E+00    1.0126512325735355E+01
C    1.8379092812110230E+01   -7.3456278169568687E+00    9.6990100421484602E+00
C    1.9799200599906218E+01   -7.3584141745260920E+00    9.8390215392223297E+00
C    2.0496262600700959E+01   -6.1120423388527856E+00    9.8972917780860197E+00
C    2.1930575733835621E+01   -6.1605070245729427E+00    9.9451536783700281E+00
C    1.8340528189314568E+01   -4.9114044897073015E+00    9.5996597465058411E+00
C    1.9801667233038831E+01   -4.9218514465609360E+00    9.7382398294313735E+00
C    2.0478892825227113E+01   -1.5994480695877559E+01    1.0103295250869575E+01
C    2.1912155456500695E+01   -1.5988487569129958E+01    1.0104379982352606E+01
C    9.8677827179544622E+00   -2.4468443728900646E+00    9.6761335051433868E+00
C    1.1291553625053488E+01   -2.4024205068595643E+00    9.5122300176341703E+00
C    1.1971881755374749E+01   -1.2067422128376859E+00    9.4701973427131048E+00
C    1.3402938729696013E+01   -1.1847899584469945E+00    9.5179586869434569E+00
C    9.8305595368463585E+00    3.8538993777764681E-03    9.6798516986791796E+00
C    1.1233873136868260E+01    1.8756246462841863E-02    9.4959345784670859E+00
C    1.1937416615102020E+01    1.2756230096156838E+00    9.5721746004664112E+00
C    1.3394569505194822E+01    1.2499808865326794E+00    9.7290253931802528E+00
C    9.8381033651581564E+00    2.4440298300725360E+00    9.5128406981150686E+00
C    1.1223920206361607E+01    2.5436797938458420E+00    9.5736345233255857E+00
C    1.1959167229187804E+01    3.7236249277076778E+00    9.7201185641255812E+00
C    1.3396166951632598E+01    3.7209512574076444E+00    9.7797904255943529E+00
C    9.8744095652413790E+00    4.9590641556875115E+00    9.4604295298325152E+00
C    1.1279014145199861E+01    4.9471113199123069E+00    9.6711691432007978E+00
C    1.1968351414479685E+01    6.2037636061232453E+00    9.7818253194123059E+00
C    1.3371362974188894E+01    6.2288626900368715E+00    9.8927474773184034E+00
C    9.8584862337546859E+00    7.3977578124078747E+00    9.5553010380915193E+00
C    1.1248378454095119E+01    7.4075986650630776E+00    9.7151753906228979E+00
C    1.1918922424186277E+01   -3.6722651796953829E+00    9.4729353165822285E+00
C    1.3359513243605280E+01   -3.6879911421359908E+00    9.4036697630777368E+00
C    1.4098377062216317E+01   -2.4647796435776304E+00    9.3846744751592848E+00
C    1.5508498608680004E+01   -2.4423131162613174E+00    9.5798429790241304E+00
C    1.6247939672289661E+01   -1.2219441100203323E+00    9.6124775273865097E+00
C    1.7667419954258328E+01   -1.2146795960532342E+00    9.5564956970058450E+00
C    1.4096388790328952E+01   -8.1968560624380328E-03    9.7753624157774617E+00
C    1.5566631670244135E+01    1.7458082709274542E-02    9.7434437173276933E+00
C    1.6293629088393409E+01    1.2378660724768404E+00    9.7562260479860541E+00
C    1.7727506751971699E+01    1.2595948544870041E+00    9.7039405830260339E+00
C    1.4053674005932011E+01    2.4968665499292082E+00    9.7530823396827770E+00
C    1.5504161679039262E+01    2.4465594474312211E+00    9.7917574292666494E+00
C    1.6223006577581440E+01    3.6932899174318687E+00    9.7395940189984334E+00
C    1.7635013302087458E+01    3.7337959706923916E+00    9.6577778579547982E+00
C    1.4072289072724564E+01    4.9734623991028668E+00    9.8423433512706460E+00
C    1.5524296493913257E+01    4.9294349681414671E+00    9.8552327610247215E+00
C    1.6200083589492912E+01    6.1519038102977213E+00    9.8316299515030430E+00
C    1.7606272982090474E+01    6.1888515793132619E+00    9.8959912845957021E+00
C    1.4102723087346268E+01    7.4513235016493207E+00    9.9244042956411640E+00
C    1.5505200654247680E+01    7.4413060999610607E+00    9.9514517446126156E+00
C    1.6235672399065276E+01   -3.6950212918914729E+00    9.5537010212843754E+00
C    1.7688117656736821E+01   -3.6880927934512102E+00    9.5797676168104360E+00
C    1.8390542366289495E+01   -2.4823400846769772E+00    9.5795678023649131E+00
C    1.9819812469319594E+01   -2.4300935386509614E+00    9.6437032339686279E+00
C    2.0536886742245500E+01   -1.1910531428626334E+00    9.6972085465866780E+00
C    2.1922819957151447E+01   -1.2364883847284940E+00    9.5797637121155876E+00
C    1.8417204290368428E+01    1.3403524565843870E-02    9.6700761008744589E+00
C    1.9829410164352669E+01    5.9401339482069403E-02    9.6840351038591610E+00
C    2.0502004592027859E+01    1.2869997312499448E+00    9.5597988453979124E+00
C    2.1988564086665988E+01    1.2466329089828210E+00    9.5971827099741578E+00
C    1.8386977597867290E+01    2.5095050961560390E+00    9.6508682307613274E+00
C    1.9820398119597701E+01    2.4900911794901601E+00    9.5758362952057308E+00
C    2.0462867872770971E+01    3.7566745065494582E+00    9.6105605748825376E+00
C    2.1969696269728349E+01    3.6800343798686437E+00    9.6999059088111341E+00
C    1.8317635714388679E+01    4.9954713261235915E+00    9.8302046699450081E+00
C    1.9755209672064737E+01    4.9825845720085074E+00    9.7211287267671374E+00
C    2.0523815262795072E+01    6.1635402266029136E+00    9.8626913374494194E+00
C    2.1928044184355588E+01    6.1423326859190164E+00    9.9043940072714349E+00
C    1.8346284533848795E+01    7.4408282690349097E+00    1.0003859755392044E+01
C    1.9751367165056063E+01    7.4247067621209712E+00    9.9844044290357061E+00
C    2.0506318542912854E+01   -3.6961809520323836E+00    9.7207030509571695E+00
C    2.1926969217006388E+01   -3.6485478224112051E+00    9.7870702510053604E+00
C    2.2660405793804621E+01   -1.4786639392659632E+01    1.0194211057335044E+01
C    2.4104772548819177E+01   -1.4776524927353988E+01    1.0180199185217418E+01
C    2.4786047997571885E+01   -1.3515227197857385E+01    1.0343563367623144E+01
C    2.6218984218798482E+01   -1.3501678686476806E+01    1.0310270053078396E+01
C    2.2585281034728954E+01   -1.2283449537545684E+01    1.0432036784333716E+01
C    2.4022694700881001E+01   -1.2293775515118533E+01    1.0492319079960009E+01
C    2.4790999053888122E+01   -1.1116813898836881E+01    1.0413549616915404E+01
C    2.6210213985009524E+01   -1.1041816028694234E+01    1.0355527447921737E+01
C    2.2615127218662622E+01   -9.9134164068048296E+00    1.0221492264676083E+01
C    2.4068540054190041E+01   -9.9037914832344800E+00    1.0264723297863691E+01
C    2.4797123816102459E+01   -8.6453733522176162E+00    1.0134049304229109E+01
C    2.6204899831708580E+01   -8.6122647078770616E+00    1.0149234408545730E+01
C    2.2639203750407138E+01   -7.4019835242178198E+00    1.0110155480988489E+01
C    2.4071987935824726E+01   -7.3923749179475635E+00    1.0034216655241563E+01
C    2.4795625466521830E+01   -6.1901376434402708E+00    9.9054511706453106E+00
C    2.6237597718760131E+01   -6.1236784570389942E+00    9.9089720286058451E+00
C    2.2642244624231761E+01   -4.9462268733863173E+00    9.8401317876558565E+00
C    2.4079338543249310E+01   -4.9696400080767313E+00    9.8334437342024010E+00
C    2.4775697901357727E+01   -1.6011044891338553E+01    1.0151053417266805E+01
C    2.6197970723278203E+01   -1.6014163967849235E+01    1.0261821951186459E+01
C    2.6906393575622690E+01   -1.4771245544412771E+01    1.0214419285962109E+01
C    2.8308047794904471E+01   -1.4760255368841129E+01    9.9953740503775386E+00
C    2.9018566512363780E+01   -1.3486649763761211E+01    9.9352500580651864E+00
C    3.0454478657758841E+01   -1.3521179361379117E+01    9.8383358603372013E+00
C    2.6894045438753654E+01   -1.2250672562471280E+01    1.0217089589387243E+01
C    2.8324154896584844E+01   -1.2282660398904699E+01    1.0148004553310388E+01
C    2.9065321812226959E+01   -1.1091877869241307E+01    1.0006800755776878E+01
C    3.0475337577058749E+01   -1.1071242538341551E+01    9.8826264159264809E+00
C    2.6936166619753617E+01   -9.7847969830695209E+00    1.0182707552535318E+01
C    2.8350865987110058E+01   -9.8469985003208631E+00    1.0075551223998307E+01
C    2.9097404163717474E+01   -8.6140292941926884E+00    9.8973422898096590E+00
C    3.0487922314384086E+01   -8.6195686935179232E+00    9.7677108678866897E+00
C    2.6941839138766731E+01   -7.3418019967966242E+00    1.0048127070202160E+01
C    2.8392356992143963E+01   -7.3854751495222022E+00    1.0037081202110313E+01
C    2.9038905144392995E+01   -6.0971314023267960E+00    9.9470425597503702E+00
C    3.0521485239376354E+01   -6.0950659216916261E+00    9.7857349015733419E+00
C    2.6899132289539658E+01   -4.8799699413724396E+00    9.8729649498425438E+00
C    2.8310494479753583E+01   -4.9165744050768598E+00    9.9024343227537415E+00
C    2.9046282210387989E+01   -1.6007418501224347E+01    9.8699338947354764E+00
C    3.0493528386433841E+01   -1.6007375234413093E+01    9.6821130560141260E+00
C    3.1169604341601651E+01   -1.4753428509140498E+01    9.7238190162614870E+00
C    3.2590338182000785E+01   -1.4717209524525442E+01    9.6643867380873942E+00
C    3.3325474524075474E+01   -1.3504527529317460E+01    9.6730880919807305E+00
C    3.4751335383877567E+01   -1.3521130846874208E+01    9.5460326080719042E+00
C    3.1167517683290669E+01   -1.2304376727089403E+01    9.8908272010994587E+00
C    3.2605014654703247E+01   -1.2284574540331654E+01    9.7159228963758171E+00
C    3.3294309837307487E+01   -1.1068723758038395E+01    9.6213483052069471E+00
C    3.4723063608714682E+01   -1.1120106741800683E+01    9.6191397451317187E+00
C    3.1240146024092681E+01   -9.8653505603769975E+00    9.8636995969156267E+00
C    3.2613521379863109E+01   -9.8382272584666666E+00    9.7342411970506380E+00
C    3.3336852616355415E+01   -8.6316377529717716E+00    9.6735634138074200E+00
C    3.4784643300446341E+01   -8.6148445809687981E+00    9.6693346722488549E+00
C    3.1186471708020093E+01   -7.3656723072259691E+00    9.7145422872171157E+00
C    3.2625878796000784E+01   -7.3887086318445254E+00    9.5953931177196043E+00
C    3.3322807662102242E+01   -6.1824126902353003E+00    9.5904557339613241E+00
C    3.4750754899573117E+01   -6.1765034393147582E+00    9.5947208976312073E+00
C    3.1254165082171291E+01   -4.8901275242699809E+00    9.7572780987775527E+00
C    3.2687978781730017E+01   -4.9002547825062086E+00    9.6812854412909957E+00
C    3.3279768644061960E+01   -1.5970011602323304E+01    9.5718318227571668E+00
C    3.4720777920569859E+01   -1.6009913951249015E+01    9.5649708743859279E+00
C    2.2629414647101846E+01   -2.4585604055022445E+00    9.7333493270542899E+00
C    2.4100689544579655E+01   -2.4646938901553881E+00    9.7397824996719979E+00
C    2.4767800298436381E+01   -1.2129092999064903E+00    9.6999029336722717E+00
C    2.6191345431462306E+01   -1.1540422890811450E+00    9.7212738156646452E+00
C    2.2670166225400234E+01    2.1183252865655821E-02    9.5873540021396959E+00
C    2.4082764845890136E+01    4.0654199403524140E-02    9.6538255112334355E+00
C    2.4828872185619375E+01    1.2816868855978021E+00    9.6953612286580562E+00
C    2.6213400042519034E+01    1.3061943991503846E+00    9.6798447047337284E+00
C    2.2698895282690032E+01    2.4631876939837607E+00    9.6546065218805008E+00
C    2.4131223515258874E+01    2.5180963198672406E+00    9.7038261743371095E+00
C    2.4788585561932965E+01    3.7694447705847898E+00    9.7555315742862785E+00
C    2.6220181786648251E+01    3.7650957758981716E+00    9.8456942473743645E+00
C    2.2648496771189777E+01    4.9135275818514694E+00    9.7966313759786381E+00
C    2.4057424030574918E+01    4.9299845536080680E+00    9.8186222345614453E+00
C    2.4724885760201484E+01    6.1731010309832506E+00    9.9640921486241680E+00
C    2.6209420489428609E+01    6.1820905018560062E+00    9.9646735219165024E+00
C    2.2634423090824214E+01    7.3913774237255421E+00    1.0073774461769316E+01
C    2.4010735585784602E+01    7.4293812021248833E+00    1.0017749413910829E+01
C    2.4771625113077771E+01   -3.6938459192779671E+00    9.8837998150661530E+00
C    2.6227523120786344E+01   -3.6483464887277681E+00    9.8373129323581061E+00
C    2.6901078042367242E+01   -2.4292884688557135E+00    9.7303999952961551E+00
C    2.8339667300936949E+01   -2.4325637901174648E+00    9.7047542790112917E+00
C    2.9012627416606289E+01   -1.2142871591480657E+00    9.5502336998272934E+00
C    3.0472659409022057E+01   -1.2177699198856413E+00    9.6104937137505928E+00
C    2.6906754797760353E+01    5.1186621627401063E-02    9.6309599652022904E+00
C    2.8353241887536836E+01    3.8434743158034773E-02    9.5784179410049148E+00
C    2.9058672811586575E+01    1.2257087878535651E+00    9.5799019308763196E+00
C    3.0428765183947878E+01    1.3005193616539532E+00    9.6004719257070654E+00
C    2.6912181367329822E+01    2.5397440392373398E+00    9.7501022160125927E+00
C    2.8368709272410648E+01    2.5491326180579059E+00    9.7369062531976756E+00
C    2.9092980999829798E+01    3.7510897244278416E+00    9.8053735251228584E+00
C    3.0505025615325092E+01    3.7820074845586769E+00    9.7319444947006648E+00
C    2.6927492609495896E+01    4.9767651141788489E+00    9.9573715363004549E+00
C    2.8345591516569616E+01    4.9824053671936426E+00    9.8433397622618841E+00
C    2.9052129879202660E+01    6.2390592766396047E+00    9.7158230208758170E+00
C    3.0477007514037368E+01    6.1968050009091034E+00    9.6647507217933306E+00
C    2.6912566576489187E+01    7.4056535068821328E+00    1.0053788128941786E+01
C    2.8297601872649636E+01    7.4552296887693892E+00    9.9653004293770024E+00
C    2.9046507327578809E+01   -3.6732971664052441E+00    9.7560062371399301E+00
C    3.0479197116233951E+01   -3.6615745285042425E+00    9.7471702501898303E+00
C    3.1176440522312387E+01   -2.4751915520979901E+00    9.7607017850353710E+00
C    3.2620381311909071E+01   -2.4714788510213896E+00    9.7360620078755566E+00
C    3.3313819994218250E+01   -1.1957892510659813E+00    9.7484130943067555E+00
C    3.4769475984653845E+01   -1.2613294050087338E+00    9.7983013078373808E+00
C    3.1159557817368437E+01    4.7672516591886191E-02    9.6815129011676486E+00
C    3.2597248486350153E+01    2.4140498215076397E-02    9.7321686828975249E+00
C    3.3285646227196445E+01    1.2476863704664896E+00    9.5545279193615666E+00
C    3.4730091932486822E+01    1.2232033955501991E+00    9.5329803531766029E+00
C    3.1166608657463264E+01    2.5221562684547791E+00    9.6921551593677133E+00
C    3.2594188258961864E+01    2.5225786609634593E+00    9.6149795950273482E+00
C    3.3308136689319333E+01    3.6907827969568956E+00    9.4234185035177358E+00
C    3.4767007066300835E+01    3.6857342610701527E+00    9.4123937492709917E+00
C    3.1175269814590536E+01    4.9840850038364630E+00    9.6374437549605467E+00
C    3.2648548882114284E+01    4.9844472290627602E+00    9.4522939850157890E+00
C    3.3365081074386040E+01    6.2073603939501094E+00    9.4958402750872590E+00
C    3.4780503639063802E+01    6.1828009755475586E+00    9.3977315468562725E+00
C    3.1236530803668572E+01    7.4424388920806708E+00    9.6457679688601310E+00
C    3.2604938552168520E+01    7.4428500317805630E+00    9.5030235438431898E+00
C    3.3385478633477469E+01   -3.6781433596825006E+00    9.7161763913906078E+00
C    3.4821833744880713E+01   -3.7024465068612362E+00    9.5717154843866421E+00
O    3.3499714153667509E+02    3.8252715745444470E+02    1.5898361901571080E+01
H    3.3468909280629146E+02    3.8277259424170200E+02    1.4965280575662318E+01
H    3.3500907838291107E+02    3.8152384516545163E+02    1.5914442571849678E+01
O    3.2632538334598382E+02    3.1486773836105419E+02    2.3199129255627618E+01
H    3.2561336876130457E+02    3.1545424785994686E+02    2.2876574307404304E+01
H    3.2683187621714802E+02    3.1543111129370737E+02    2.3878083504062559E+01
O    3.3050433183363839E+02    4.0107185260717068E+02    2.7716909413064325E+01
H    3.3108342619899207E+02    4.0058095679802477E+02    2.7073694488804421E+01
H    3.3097811847215269E+02    4.0191651474378102E+02    2.7852209761163184E+01
O    4.5856888081357636E+02    3.5770706700333386E+02    1.3352098972566832E+01
H    4.5832343010358426E+02    3.5847813241013642E+02    1.3860146798550689E+01
H    4.5770418452668582E+02    3.5722063429205997E+02    1.3202349246044141E+01
O    3.1596163871465001E+02    3.4583940018386846E+02    1.5647258107381411E+01
H    3.1509049488934414E+02    3.4537649724524351E+02    1.5516523292769675E+01
H    3.1645341585220694E+02    3.4503895952800627E+02    1.6066947866665682E+01
O    3.5352831148953089E+02    3.5604261141818756E+02    1.6233584723575060E+01
H    3.5259670988948824E+02    3.5588580353441313E+02    1.6381964706870566E+01
H    3.5387107644028600E+02    3.5667867820784147E+02    1.6996570686345827E+01
O    4.1519392546447466E+02    3.3982604822286424E+02    2.8197593993838545E+01
H    4.1588131400306793E+02    3.3932623923891276E+02    2.8634632826642118E+01
H    4.1431072602096998E+02    3.3944020280223998E+02    2.8552318952030230E+01
O    2.8231707467964810E+02    2.8921515196848128E+02    1.8816573955982577E+01
H    2.8329696524919194E+02    2.8943292456748810E+02    1.8705944197322818E+01
H    2.8222972618620531E+02    2.8858382867990076E+02    1.9550003800214782E+01
O    1.8362651151784044E+02    3.8114138327580645E+02    1.8773051815152137E+01
H    1.8398850931322951E+02    3.8037178927652968E+02    1.8182801152723627E+01
H    1.8379433339422619E+02    3.8087212145791477E+02    1.9713000570618611E+01
O    3.3166131816703972E+02    3.5361173382972527E+02    1.8389606097214955E+01
H    3.3205404493754122E+02    3.5421871451068773E+02    1.9141315167880911E+01
H    3.3084986238923307E+02    3.5414264761132222E+02    1.7987021793965710E+01
O    3.3417331935822205E+02    4.0186956314274624E+02    2.7550512390076506E+01
H    3.3432054087629876E+02    4.0197171902263852E+02    2.6556258506054640E+01
H    3.3331353036214705E+02    4.0247730984495360E+02    2.7701550427562950E+01
O    2.6421036604394135E+02    3.4024750868332126E+02    2.4892447075034351E+01
H    2.6438447947979552E+02    3.4107734256692129E+02    2.4348370000689624E+01
H    2.6410340155035732E+02    3.3944031048576892E+02    2.4297059943078619E+01
O    2.8364807325722131E+02    2.5394439219286673E+02    2.4858246273245769E+01
H    2.8309319479269806E+02    2.5310567998901539E+02    2.4754958079270676E+01
H    2.8305451277023263E+02    2.5466924145759461E+02    2.4568555758413705E+01
O    3.7521406142403447E+02    2.4209003675830124E+02    2.2022237313476630E+01
H    3.7576751823772332E+02    2.4172525891393772E+02    2.1309998689240842E+01
H    3.7455504199343864E+02    2.4133186523099994E+02    2.2368420638373596E+01
O    2.2143990985416693E+02    5.3926094121630092E+02    1.2934162379134822E+01
H    2.2074734073950964E+02    5.3855652903331475E+02    1.2562842013642237E+01
H    2.2087129296397649E+02    5.4003990889803936E+02    1.2842501520067675E+01
O    3.6900407487789738E+02    3.6100078606477035E+02    2.2966019274599859E+01
H    3.6857548959225346E+02    3.6040905754417349E+02    2.2313486988563859E+01
H    3.6827513407473452E+02    3.6162076295012963E+02    2.3083785207085771E+01
O    3.3329737037055810E+02    3.8810506068456698E+02    2.5490865843078662E+01
H    3.3418779267142469E+02    3.8865463909109786E+02    2.5461356736723484E+01
H    3.3253139532545441E+02    3.8863243502289419E+02    2.4984437934544868E+01
O    3.1243280943468994E+02    3.3423082945892423E+02    1.7794926684842672E+01
H    3.1207624052867897E+02    3.3346458257328487E+02    1.8338378385910264E+01
H    3.1189331419491629E+02    3.3501168664856613E+02    1.8139247989790611E+01
O    2.6739533312744538E+02    3.7108451880041787E+02    2.8902922211563922E+01
H    2.6670921783894505E+02    3.7078798618414578E+02    2.9618849306684119E+01